t vof s11 s22 s12
0.000000e+00 8.336390e-01 1.332020e-04 -1.332020e-04 2.311623e+00
1.000000e-03 8.338113e-01 -1.296961e-04 1.296961e-04 2.311854e+00
2.000000e-03 8.339849e-01 -2.330992e-04 2.330992e-04 2.312169e+00
3.000000e-03 8.341598e-01 -2.787777e-04 2.787777e-04 2.312545e+00
4.000000e-03 8.343360e-01 -3.147572e-04 3.147572e-04 2.312964e+00
5.000000e-03 8.345135e-01 -3.578056e-04 3.578056e-04 2.313414e+00
6.000000e-03 8.346924e-01 -4.085659e-04 4.085659e-04 2.313883e+00
7.000000e-03 8.348727e-01 -4.607486e-04 4.607486e-04 2.314365e+00
8.000000e-03 8.350546e-01 -5.062864e-04 5.062864e-04 2.314855e+00
9.000000e-03 8.352381e-01 -5.379633e-04 5.379633e-04 2.315347e+00
1.000000e-02 8.354233e-01 -5.505443e-04 5.505443e-04 2.315838e+00
1.100000e-02 8.356101e-01 -5.410563e-04 5.410563e-04 2.316326e+00
1.200000e-02 8.357986e-01 -5.086198e-04 5.086198e-04 2.316809e+00
1.300000e-02 8.359888e-01 -4.540681e-04 4.540681e-04 2.317287e+00
1.400000e-02 8.361807e-01 -3.794933e-04 3.794933e-04 2.317759e+00
1.500000e-02 8.363743e-01 -2.877996e-04 2.877996e-04 2.318225e+00
1.600000e-02 8.365695e-01 -1.823073e-04 1.823073e-04 2.318685e+00
1.700000e-02 8.367664e-01 -6.642937e-05 6.642937e-05 2.319140e+00
1.800000e-02 8.369649e-01 5.657109e-05 -5.657109e-05 2.319592e+00
1.900000e-02 8.371649e-01 1.837458e-04 -1.837458e-04 2.320041e+00
2.000000e-02 8.373666e-01 3.125549e-04 -3.125549e-04 2.320489e+00
2.100000e-02 8.370856e-01 1.169701e-03 -1.169701e-03 2.317258e+00
2.200000e-02 8.372970e-01 2.096794e-03 -2.096794e-03 2.317461e+00
2.300000e-02 8.375106e-01 1.556746e-03 -1.556746e-03 2.317728e+00
2.400000e-02 8.377259e-01 9.594776e-04 -9.594776e-04 2.318088e+00
2.500000e-02 8.379426e-01 4.436202e-04 -4.436202e-04 2.318509e+00
2.600000e-02 8.381605e-01 -1.907110e-05 1.907110e-05 2.318968e+00
2.700000e-02 8.383796e-01 -4.528387e-04 4.528387e-04 2.319449e+00
2.800000e-02 8.385999e-01 -8.661500e-04 8.661500e-04 2.319941e+00
2.900000e-02 8.388212e-01 -1.257896e-03 1.257896e-03 2.320433e+00
3.000000e-02 8.390436e-01 -1.622289e-03 1.622289e-03 2.320918e+00
3.100000e-02 8.392671e-01 -1.951688e-03 1.951688e-03 2.321393e+00
3.200000e-02 8.394916e-01 -2.238200e-03 2.238200e-03 2.321853e+00
3.300000e-02 8.397171e-01 -2.474642e-03 2.474642e-03 2.322296e+00
3.400000e-02 8.399437e-01 -2.655120e-03 2.655120e-03 2.322724e+00
3.500000e-02 8.401713e-01 -2.775369e-03 2.775369e-03 2.323137e+00
3.600000e-02 8.403999e-01 -2.832917e-03 2.832917e-03 2.323537e+00
3.700000e-02 8.406296e-01 -2.827121e-03 2.827121e-03 2.323928e+00
3.800000e-02 8.408603e-01 -2.759087e-03 2.759087e-03 2.324313e+00
3.900000e-02 8.410921e-01 -2.631514e-03 2.631514e-03 2.324695e+00
4.000000e-02 8.413249e-01 -2.448468e-03 2.448468e-03 2.325078e+00
4.100000e-02 8.412356e-01 -6.058717e-03 6.058717e-03 2.314763e+00
4.200000e-02 8.414713e-01 -6.005220e-03 6.005220e-03 2.315248e+00
4.300000e-02 8.417090e-01 -5.528250e-03 5.528250e-03 2.315779e+00
4.400000e-02 8.419483e-01 -4.897778e-03 4.897778e-03 2.316359e+00
4.500000e-02 8.421889e-01 -4.240052e-03 4.240052e-03 2.316978e+00
4.600000e-02 8.424308e-01 -3.609298e-03 3.609298e-03 2.317629e+00
4.700000e-02 8.426738e-01 -3.025509e-03 3.025509e-03 2.318303e+00
4.800000e-02 8.429178e-01 -2.493229e-03 2.493229e-03 2.318993e+00
4.900000e-02 8.431628e-01 -2.010586e-03 2.010586e-03 2.319694e+00
5.000000e-02 8.434088e-01 -1.573498e-03 1.573498e-03 2.320402e+00
5.100000e-02 8.436556e-01 -1.177512e-03 1.177512e-03 2.321116e+00
5.200000e-02 8.439034e-01 -8.185156e-04 8.185156e-04 2.321833e+00
5.300000e-02 8.441520e-01 -4.929129e-04 4.929129e-04 2.322552e+00
5.400000e-02 8.444015e-01 -1.975812e-04 1.975812e-04 2.323271e+00
5.500000e-02 8.446518e-01 7.025164e-05 -7.025164e-05 2.323991e+00
5.600000e-02 8.449029e-01 3.131338e-04 -3.131338e-04 2.324710e+00
5.700000e-02 8.451548e-01 5.334893e-04 -5.334893e-04 2.325428e+00
5.800000e-02 8.454075e-01 7.336824e-04 -7.336824e-04 2.326144e+00
5.900000e-02 8.456610e-01 9.160468e-04 -9.160468e-04 2.326857e+00
6.000000e-02 8.459153e-01 1.082886e-03 -1.082886e-03 2.327568e+00
6.100000e-02 8.461703e-01 1.236456e-03 -1.236456e-03 2.328276e+00
6.200000e-02 8.464260e-01 1.378931e-03 -1.378931e-03 2.328980e+00
6.300000e-02 8.466825e-01 1.512371e-03 -1.512371e-03 2.329680e+00
6.400000e-02 8.469398e-01 1.638683e-03 -1.638683e-03 2.330376e+00
6.500000e-02 8.471977e-01 1.759592e-03 -1.759592e-03 2.331067e+00
6.600000e-02 8.474564e-01 1.876618e-03 -1.876618e-03 2.331755e+00
6.700000e-02 8.477158e-01 1.991059e-03 -1.991059e-03 2.332438e+00
6.800000e-02 8.479758e-01 2.103986e-03 -2.103986e-03 2.333117e+00
6.900000e-02 8.482366e-01 2.216247e-03 -2.216247e-03 2.333791e+00
7.000000e-02 8.484980e-01 2.328471e-03 -2.328471e-03 2.334462e+00
7.100000e-02 8.484694e-01 -2.568452e-03 2.568452e-03 2.343755e+00
7.200000e-02 8.487320e-01 -2.083791e-03 2.083791e-03 2.344535e+00
7.300000e-02 8.489961e-01 -1.793781e-03 1.793781e-03 2.345270e+00
7.400000e-02 8.492611e-01 -1.648140e-03 1.648140e-03 2.345983e+00
7.500000e-02 8.495270e-01 -1.586629e-03 1.586629e-03 2.346683e+00
7.600000e-02 8.497937e-01 -1.573013e-03 1.573013e-03 2.347375e+00
7.700000e-02 8.500611e-01 -1.587794e-03 1.587794e-03 2.348061e+00
7.800000e-02 8.503291e-01 -1.620493e-03 1.620493e-03 2.348744e+00
7.900000e-02 8.505978e-01 -1.665268e-03 1.665268e-03 2.349425e+00
8.000000e-02 8.508671e-01 -1.718677e-03 1.718677e-03 2.350107e+00
8.100000e-02 8.511369e-01 -1.778551e-03 1.778551e-03 2.350789e+00
8.200000e-02 8.514074e-01 -1.843405e-03 1.843405e-03 2.351474e+00
8.300000e-02 8.516784e-01 -1.912125e-03 1.912125e-03 2.352163e+00
8.400000e-02 8.519500e-01 -1.983798e-03 1.983798e-03 2.352855e+00
8.500000e-02 8.522221e-01 -2.057624e-03 2.057624e-03 2.353551e+00
8.600000e-02 8.524947e-01 -2.132860e-03 2.132860e-03 2.354252e+00
8.700000e-02 8.527678e-01 -2.208805e-03 2.208805e-03 2.354957e+00
8.800000e-02 8.530414e-01 -2.284787e-03 2.284787e-03 2.355668e+00
8.900000e-02 8.533155e-01 -2.360164e-03 2.360164e-03 2.356384e+00
9.000000e-02 8.535901e-01 -2.434326e-03 2.434326e-03 2.357105e+00
9.100000e-02 8.538651e-01 -2.506696e-03 2.506696e-03 2.357831e+00
9.200000e-02 8.541407e-01 -2.576743e-03 2.576743e-03 2.358563e+00
9.300000e-02 8.544166e-01 -2.643979e-03 2.643979e-03 2.359299e+00
9.400000e-02 8.546930e-01 -2.707963e-03 2.707963e-03 2.360040e+00
9.500000e-02 8.549699e-01 -2.768308e-03 2.768308e-03 2.360786e+00
9.600000e-02 8.552472e-01 -2.824680e-03 2.824680e-03 2.361536e+00
9.700000e-02 8.555249e-01 -2.876796e-03 2.876796e-03 2.362290e+00
9.800000e-02 8.558031e-01 -2.924426e-03 2.924426e-03 2.363048e+00
9.900000e-02 8.560816e-01 -2.967390e-03 2.967390e-03 2.363810e+00
1.000000e-01 8.563606e-01 -3.005559e-03 3.005559e-03 2.364576e+00
1.010000e-01 8.566400e-01 -3.038846e-03 3.038846e-03 2.365345e+00
1.020000e-01 8.569198e-01 -3.067209e-03 3.067209e-03 2.366117e+00
1.030000e-01 8.571999e-01 -3.090643e-03 3.090643e-03 2.366891e+00
1.040000e-01 8.574805e-01 -3.109181e-03 3.109181e-03 2.367668e+00
1.050000e-01 8.577615e-01 -3.122884e-03 3.122884e-03 2.368448e+00
1.060000e-01 8.580428e-01 -3.131845e-03 3.131845e-03 2.369229e+00
1.070000e-01 8.583245e-01 -3.136178e-03 3.136178e-03 2.370013e+00
1.080000e-01 8.586066e-01 -3.136020e-03 3.136020e-03 2.370797e+00
1.090000e-01 8.588890e-01 -3.131525e-03 3.131525e-03 2.371584e+00
1.100000e-01 8.591719e-01 -3.122864e-03 3.122864e-03 2.372371e+00
1.110000e-01 8.594551e-01 -3.110216e-03 3.110216e-03 2.373159e+00
1.120000e-01 8.597386e-01 -3.093774e-03 3.093774e-03 2.373949e+00
1.130000e-01 8.600225e-01 -3.073736e-03 3.073736e-03 2.374738e+00
1.140000e-01 8.603067e-01 -3.050305e-03 3.050305e-03 2.375528e+00
1.150000e-01 8.605913e-01 -3.023689e-03 3.023689e-03 2.376319e+00
1.160000e-01 8.608106e-01 1.651285e-03 -1.651285e-03 2.368747e+00
1.170000e-01 8.610952e-01 1.507816e-03 -1.507816e-03 2.369601e+00
1.180000e-01 8.613805e-01 1.453929e-03 -1.453929e-03 2.370442e+00
1.190000e-01 8.616664e-01 1.459663e-03 -1.459663e-03 2.371271e+00
1.200000e-01 8.619527e-01 1.503460e-03 -1.503460e-03 2.372089e+00
1.210000e-01 8.622396e-01 1.570675e-03 -1.570675e-03 2.372898e+00
1.220000e-01 8.625269e-01 1.651677e-03 -1.651677e-03 2.373700e+00
1.230000e-01 8.628146e-01 1.740246e-03 -1.740246e-03 2.374496e+00
1.240000e-01 8.631026e-01 1.832401e-03 -1.832401e-03 2.375287e+00
1.250000e-01 8.633911e-01 1.925603e-03 -1.925603e-03 2.376075e+00
1.260000e-01 8.636799e-01 2.018232e-03 -2.018232e-03 2.376860e+00
1.270000e-01 8.639690e-01 2.109245e-03 -2.109245e-03 2.377643e+00
1.280000e-01 8.642585e-01 2.197976e-03 -2.197976e-03 2.378426e+00
1.290000e-01 8.645483e-01 2.283995e-03 -2.283995e-03 2.379207e+00
1.300000e-01 8.648384e-01 2.367032e-03 -2.367032e-03 2.379989e+00
1.310000e-01 8.651289e-01 2.446928e-03 -2.446928e-03 2.380770e+00
1.320000e-01 8.654196e-01 2.523596e-03 -2.523596e-03 2.381552e+00
1.330000e-01 8.657107e-01 2.597011e-03 -2.597011e-03 2.382334e+00
1.340000e-01 8.660021e-01 2.667185e-03 -2.667185e-03 2.383118e+00
1.350000e-01 8.662938e-01 2.734168e-03 -2.734168e-03 2.383902e+00
1.360000e-01 8.665857e-01 2.798032e-03 -2.798032e-03 2.384687e+00
1.370000e-01 8.668780e-01 2.858871e-03 -2.858871e-03 2.385474e+00
1.380000e-01 8.671705e-01 2.916796e-03 -2.916796e-03 2.386262e+00
1.390000e-01 8.674633e-01 2.971928e-03 -2.971928e-03 2.387051e+00
1.400000e-01 8.677564e-01 3.024398e-03 -3.024398e-03 2.387842e+00
1.410000e-01 8.680498e-01 3.074343e-03 -3.074343e-03 2.388634e+00
1.420000e-01 8.683434e-01 3.121902e-03 -3.121902e-03 2.389428e+00
1.430000e-01 8.686373e-01 3.167220e-03 -3.167220e-03 2.390223e+00
1.440000e-01 8.689314e-01 3.210437e-03 -3.210437e-03 2.391020e+00
1.450000e-01 8.692258e-01 3.251694e-03 -3.251694e-03 2.391819e+00
1.460000e-01 8.695205e-01 3.291130e-03 -3.291130e-03 2.392619e+00
1.470000e-01 8.698154e-01 3.328879e-03 -3.328879e-03 2.393421e+00
1.480000e-01 8.701105e-01 3.365072e-03 -3.365072e-03 2.394224e+00
1.490000e-01 8.704059e-01 3.399833e-03 -3.399833e-03 2.395029e+00
1.500000e-01 8.707016e-01 3.433282e-03 -3.433282e-03 2.395836e+00
1.510000e-01 8.709974e-01 3.465534e-03 -3.465534e-03 2.396645e+00
1.520000e-01 8.712935e-01 3.496696e-03 -3.496696e-03 2.397455e+00
1.530000e-01 8.715898e-01 3.526871e-03 -3.526871e-03 2.398267e+00
1.540000e-01 8.718864e-01 3.556155e-03 -3.556155e-03 2.399081e+00
1.550000e-01 8.721831e-01 3.584637e-03 -3.584637e-03 2.399896e+00
1.560000e-01 8.724801e-01 3.612402e-03 -3.612402e-03 2.400713e+00
1.570000e-01 8.727773e-01 3.639528e-03 -3.639528e-03 2.401532e+00
1.580000e-01 8.730748e-01 3.666087e-03 -3.666087e-03 2.402353e+00
1.590000e-01 8.733724e-01 3.692147e-03 -3.692147e-03 2.403175e+00
1.600000e-01 8.736702e-01 3.717770e-03 -3.717770e-03 2.403999e+00
1.610000e-01 8.739683e-01 3.743011e-03 -3.743011e-03 2.404825e+00
1.620000e-01 8.742665e-01 3.767922e-03 -3.767922e-03 2.405652e+00
1.630000e-01 8.745649e-01 3.792552e-03 -3.792552e-03 2.406481e+00
1.640000e-01 8.748636e-01 3.816942e-03 -3.816942e-03 2.407312e+00
1.650000e-01 8.751624e-01 3.841131e-03 -3.841131e-03 2.408145e+00
1.660000e-01 8.754614e-01 3.865155e-03 -3.865155e-03 2.408979e+00
1.670000e-01 8.757606e-01 3.889042e-03 -3.889042e-03 2.409815e+00
1.680000e-01 8.760600e-01 3.912822e-03 -3.912822e-03 2.410653e+00
1.690000e-01 8.763596e-01 3.936519e-03 -3.936519e-03 2.411493e+00
1.700000e-01 8.766594e-01 3.960153e-03 -3.960153e-03 2.412334e+00
1.710000e-01 8.769593e-01 3.983742e-03 -3.983742e-03 2.413177e+00
1.720000e-01 8.772594e-01 4.007303e-03 -4.007303e-03 2.414021e+00
1.730000e-01 8.775597e-01 4.030848e-03 -4.030848e-03 2.414868e+00
1.740000e-01 8.778601e-01 4.054388e-03 -4.054388e-03 2.415716e+00
1.750000e-01 8.781608e-01 4.077932e-03 -4.077932e-03 2.416565e+00
1.760000e-01 8.784616e-01 4.101486e-03 -4.101486e-03 2.417417e+00
1.770000e-01 8.787625e-01 4.125055e-03 -4.125055e-03 2.418270e+00
1.780000e-01 8.790636e-01 4.148643e-03 -4.148643e-03 2.419124e+00
1.790000e-01 8.793649e-01 4.172251e-03 -4.172251e-03 2.419980e+00
1.800000e-01 8.796663e-01 4.195878e-03 -4.195878e-03 2.420838e+00
1.810000e-01 8.799679e-01 4.219525e-03 -4.219525e-03 2.421698e+00
1.820000e-01 8.802696e-01 4.243188e-03 -4.243188e-03 2.422559e+00
1.830000e-01 8.805715e-01 4.266865e-03 -4.266865e-03 2.423422e+00
1.840000e-01 8.808735e-01 4.290551e-03 -4.290551e-03 2.424287e+00
1.850000e-01 8.811757e-01 4.314241e-03 -4.314241e-03 2.425153e+00
1.860000e-01 8.814780e-01 4.337929e-03 -4.337929e-03 2.426020e+00
1.870000e-01 8.817804e-01 4.361609e-03 -4.361609e-03 2.426890e+00
1.880000e-01 8.820830e-01 4.385274e-03 -4.385274e-03 2.427761e+00
1.890000e-01 8.823857e-01 4.408916e-03 -4.408916e-03 2.428633e+00
1.900000e-01 8.826886e-01 4.432526e-03 -4.432526e-03 2.429507e+00
1.910000e-01 8.829915e-01 4.456098e-03 -4.456098e-03 2.430382e+00
1.920000e-01 8.832946e-01 4.479621e-03 -4.479621e-03 2.431259e+00
1.930000e-01 8.835979e-01 4.503088e-03 -4.503088e-03 2.432138e+00
1.940000e-01 8.839012e-01 4.526489e-03 -4.526489e-03 2.433018e+00
1.950000e-01 8.842047e-01 4.549814e-03 -4.549814e-03 2.433899e+00
1.960000e-01 8.845083e-01 4.573056e-03 -4.573056e-03 2.434782e+00
1.970000e-01 8.848120e-01 4.596204e-03 -4.596204e-03 2.435667e+00
1.980000e-01 8.851159e-01 4.619250e-03 -4.619250e-03 2.436552e+00
1.990000e-01 8.854198e-01 4.642183e-03 -4.642183e-03 2.437440e+00
2.000000e-01 8.857238e-01 4.664996e-03 -4.664996e-03 2.438328e+00
2.010000e-01 8.860280e-01 4.687680e-03 -4.687680e-03 2.439218e+00
2.020000e-01 8.863323e-01 4.710225e-03 -4.710225e-03 2.440109e+00
2.030000e-01 8.866366e-01 4.732623e-03 -4.732623e-03 2.441002e+00
2.040000e-01 8.869411e-01 4.754866e-03 -4.754866e-03 2.441896e+00
2.050000e-01 8.872457e-01 4.776946e-03 -4.776946e-03 2.442791e+00
2.060000e-01 8.875503e-01 4.798854e-03 -4.798854e-03 2.443688e+00
2.070000e-01 8.878551e-01 4.820584e-03 -4.820584e-03 2.444585e+00
2.080000e-01 8.881600e-01 4.842129e-03 -4.842129e-03 2.445484e+00
2.090000e-01 8.884649e-01 4.863480e-03 -4.863480e-03 2.446385e+00
2.100000e-01 8.887699e-01 4.884633e-03 -4.884633e-03 2.447286e+00
2.110000e-01 8.890751e-01 4.905579e-03 -4.905579e-03 2.448188e+00
2.120000e-01 8.893803e-01 4.926315e-03 -4.926315e-03 2.449092e+00
2.130000e-01 8.896856e-01 4.946833e-03 -4.946833e-03 2.449997e+00
2.140000e-01 8.899910e-01 4.967129e-03 -4.967129e-03 2.450903e+00
2.150000e-01 8.902964e-01 4.987198e-03 -4.987198e-03 2.451810e+00
2.160000e-01 8.906019e-01 5.007035e-03 -5.007035e-03 2.452718e+00
2.170000e-01 8.910402e-01 7.282587e-05 -7.282587e-05 2.460559e+00
2.180000e-01 8.913458e-01 3.763948e-05 -3.763948e-05 2.461446e+00
2.190000e-01 8.916515e-01 2.093934e-05 -2.093934e-05 2.462329e+00
2.200000e-01 8.919575e-01 1.705914e-05 -1.705914e-05 2.463211e+00
2.210000e-01 8.922637e-01 2.201219e-05 -2.201219e-05 2.464091e+00
2.220000e-01 8.925700e-01 3.302430e-05 -3.302430e-05 2.464970e+00
2.230000e-01 8.928764e-01 4.818454e-05 -4.818454e-05 2.465848e+00
2.240000e-01 8.931829e-01 6.618950e-05 -6.618950e-05 2.466725e+00
2.250000e-01 8.934896e-01 8.615865e-05 -8.615865e-05 2.467601e+00
2.260000e-01 8.937963e-01 1.075030e-04 -1.075030e-04 2.468476e+00
2.270000e-01 8.941031e-01 1.298323e-04 -1.298323e-04 2.469351e+00
2.280000e-01 8.944100e-01 1.528907e-04 -1.528907e-04 2.470226e+00
2.290000e-01 8.947170e-01 1.765116e-04 -1.765116e-04 2.471100e+00
2.300000e-01 8.950241e-01 2.005875e-04 -2.005875e-04 2.471974e+00
2.310000e-01 8.953312e-01 2.250489e-04 -2.250489e-04 2.472848e+00
2.320000e-01 8.956383e-01 2.498504e-04 -2.498504e-04 2.473722e+00
2.330000e-01 8.959456e-01 2.749620e-04 -2.749620e-04 2.474596e+00
2.340000e-01 8.962529e-01 3.003623e-04 -3.003623e-04 2.475470e+00
2.350000e-01 8.965602e-01 3.260352e-04 -3.260352e-04 2.476344e+00
2.360000e-01 8.968676e-01 3.519673e-04 -3.519673e-04 2.477219e+00
2.370000e-01 8.971750e-01 3.781467e-04 -3.781467e-04 2.478093e+00
2.380000e-01 8.974825e-01 4.045617e-04 -4.045617e-04 2.478968e+00
2.390000e-01 8.977900e-01 4.312008e-04 -4.312008e-04 2.479843e+00
2.400000e-01 8.980975e-01 4.580524e-04 -4.580524e-04 2.480718e+00
2.410000e-01 8.984051e-01 4.851046e-04 -4.851046e-04 2.481594e+00
2.420000e-01 8.987127e-01 5.123455e-04 -5.123455e-04 2.482470e+00
2.430000e-01 8.990204e-01 5.397627e-04 -5.397627e-04 2.483346e+00
2.440000e-01 8.993280e-01 5.673443e-04 -5.673443e-04 2.484223e+00
2.450000e-01 8.996358e-01 5.950781e-04 -5.950781e-04 2.485100e+00
2.460000e-01 8.999435e-01 6.229520e-04 -6.229520e-04 2.485978e+00
2.470000e-01 9.002512e-01 6.509543e-04 -6.509543e-04 2.486855e+00
2.480000e-01 9.005590e-01 6.790734e-04 -6.790734e-04 2.487733e+00
2.490000e-01 9.008668e-01 7.072981e-04 -7.072981e-04 2.488612e+00
2.500000e-01 9.011746e-01 7.356172e-04 -7.356172e-04 2.489490e+00
2.510000e-01 9.014824e-01 7.640203e-04 -7.640203e-04 2.490370e+00
2.520000e-01 9.017902e-01 7.924970e-04 -7.924970e-04 2.491249e+00
2.530000e-01 9.020981e-01 8.210372e-04 -8.210372e-04 2.492129e+00
2.540000e-01 9.024059e-01 8.496314e-04 -8.496314e-04 2.493009e+00
2.550000e-01 9.027138e-01 8.782703e-04 -8.782703e-04 2.493889e+00
2.560000e-01 9.030216e-01 9.069450e-04 -9.069450e-04 2.494770e+00
2.570000e-01 9.033295e-01 9.356469e-04 -9.356469e-04 2.495651e+00
2.580000e-01 9.036373e-01 9.643676e-04 -9.643676e-04 2.496532e+00
2.590000e-01 9.039452e-01 9.930992e-04 -9.930992e-04 2.497413e+00
2.600000e-01 9.042531e-01 1.021834e-03 -1.021834e-03 2.498295e+00
2.610000e-01 9.045609e-01 1.050565e-03 -1.050565e-03 2.499176e+00
2.620000e-01 9.048687e-01 1.079285e-03 -1.079285e-03 2.500058e+00
2.630000e-01 9.051766e-01 1.107987e-03 -1.107987e-03 2.500941e+00
2.640000e-01 9.054844e-01 1.136664e-03 -1.136664e-03 2.501823e+00
2.650000e-01 9.057922e-01 1.165311e-03 -1.165311e-03 2.502705e+00
2.660000e-01 9.061000e-01 1.193921e-03 -1.193921e-03 2.503588e+00
2.670000e-01 9.064077e-01 1.222489e-03 -1.222489e-03 2.504470e+00
2.680000e-01 9.067155e-01 1.251008e-03 -1.251008e-03 2.505353e+00
2.690000e-01 9.070232e-01 1.279475e-03 -1.279475e-03 2.506236e+00
2.700000e-01 9.073309e-01 1.307882e-03 -1.307882e-03 2.507118e+00
2.710000e-01 9.076386e-01 1.336227e-03 -1.336227e-03 2.508001e+00
2.720000e-01 9.079462e-01 1.364504e-03 -1.364504e-03 2.508884e+00
2.730000e-01 9.082539e-01 1.392708e-03 -1.392708e-03 2.509766e+00
2.740000e-01 9.085614e-01 1.420835e-03 -1.420835e-03 2.510649e+00
2.750000e-01 9.088690e-01 1.448882e-03 -1.448882e-03 2.511531e+00
2.760000e-01 9.091765e-01 1.476843e-03 -1.476843e-03 2.512413e+00
2.770000e-01 9.094840e-01 1.504716e-03 -1.504716e-03 2.513296e+00
2.780000e-01 9.097914e-01 1.532496e-03 -1.532496e-03 2.514177e+00
2.790000e-01 9.100988e-01 1.560180e-03 -1.560180e-03 2.515059e+00
2.800000e-01 9.104062e-01 1.587765e-03 -1.587765e-03 2.515941e+00
2.810000e-01 9.107135e-01 1.615247e-03 -1.615247e-03 2.516822e+00
2.820000e-01 9.110208e-01 1.642624e-03 -1.642624e-03 2.517703e+00
2.830000e-01 9.113280e-01 1.669892e-03 -1.669892e-03 2.518583e+00
2.840000e-01 9.116352e-01 1.697049e-03 -1.697049e-03 2.519463e+00
2.850000e-01 9.119423e-01 1.724091e-03 -1.724091e-03 2.520343e+00
2.860000e-01 9.122493e-01 1.751017e-03 -1.751017e-03 2.521222e+00
2.870000e-01 9.125563e-01 1.777823e-03 -1.777823e-03 2.522101e+00
2.880000e-01 9.128633e-01 1.804508e-03 -1.804508e-03 2.522980e+00
2.890000e-01 9.131701e-01 1.831068e-03 -1.831068e-03 2.523857e+00
2.900000e-01 9.134770e-01 1.857503e-03 -1.857503e-03 2.524735e+00
2.910000e-01 9.137837e-01 1.883809e-03 -1.883809e-03 2.525611e+00
2.920000e-01 9.140904e-01 1.909985e-03 -1.909985e-03 2.526488e+00
2.930000e-01 9.143970e-01 1.936029e-03 -1.936029e-03 2.527363e+00
2.940000e-01 9.147035e-01 1.961939e-03 -1.961939e-03 2.528238e+00
2.950000e-01 9.150100e-01 1.987713e-03 -1.987713e-03 2.529112e+00
2.960000e-01 9.153164e-01 2.013349e-03 -2.013349e-03 2.529985e+00
2.970000e-01 9.156227e-01 2.038847e-03 -2.038847e-03 2.530858e+00
2.980000e-01 9.159290e-01 2.064204e-03 -2.064204e-03 2.531729e+00
2.990000e-01 9.162351e-01 2.089419e-03 -2.089419e-03 2.532600e+00
3.000000e-01 9.165412e-01 2.114491e-03 -2.114491e-03 2.533470e+00
3.010000e-01 9.168472e-01 2.139419e-03 -2.139419e-03 2.534339e+00
3.020000e-01 9.171531e-01 2.164200e-03 -2.164200e-03 2.535208e+00
3.030000e-01 9.174589e-01 2.188835e-03 -2.188835e-03 2.536075e+00
3.040000e-01 9.177646e-01 2.213322e-03 -2.213322e-03 2.536941e+00
3.050000e-01 9.180703e-01 2.237659e-03 -2.237659e-03 2.537806e+00
3.060000e-01 9.183758e-01 2.261846e-03 -2.261846e-03 2.538670e+00
3.070000e-01 9.186812e-01 2.285883e-03 -2.285883e-03 2.539533e+00
3.080000e-01 9.189866e-01 2.309767e-03 -2.309767e-03 2.540394e+00
3.090000e-01 9.192918e-01 2.333499e-03 -2.333499e-03 2.541255e+00
3.100000e-01 9.195970e-01 2.357077e-03 -2.357077e-03 2.542114e+00
3.110000e-01 9.199020e-01 2.380502e-03 -2.380502e-03 2.542972e+00
3.120000e-01 9.202069e-01 2.403771e-03 -2.403771e-03 2.543829e+00
3.130000e-01 9.205117e-01 2.426885e-03 -2.426885e-03 2.544684e+00
3.140000e-01 9.208165e-01 2.449844e-03 -2.449844e-03 2.545538e+00
3.150000e-01 9.211210e-01 2.472645e-03 -2.472645e-03 2.546390e+00
3.160000e-01 9.214255e-01 2.495290e-03 -2.495290e-03 2.547241e+00
3.170000e-01 9.217299e-01 2.517778e-03 -2.517778e-03 2.548091e+00
3.180000e-01 9.220341e-01 2.540108e-03 -2.540108e-03 2.548939e+00
3.190000e-01 9.223383e-01 2.562279e-03 -2.562279e-03 2.549785e+00
3.200000e-01 9.226423e-01 2.584293e-03 -2.584293e-03 2.550630e+00
3.210000e-01 9.229461e-01 2.606148e-03 -2.606148e-03 2.551473e+00
3.220000e-01 9.232499e-01 2.627844e-03 -2.627844e-03 2.552315e+00
3.230000e-01 9.235535e-01 2.649381e-03 -2.649381e-03 2.553155e+00
3.240000e-01 9.238570e-01 2.670760e-03 -2.670760e-03 2.553993e+00
3.250000e-01 9.241604e-01 2.691979e-03 -2.691979e-03 2.554829e+00
3.260000e-01 9.244636e-01 2.713039e-03 -2.713039e-03 2.555663e+00
3.270000e-01 9.247667e-01 2.733939e-03 -2.733939e-03 2.556496e+00
3.280000e-01 9.250696e-01 2.754681e-03 -2.754681e-03 2.557326e+00
3.290000e-01 9.253724e-01 2.775263e-03 -2.775263e-03 2.558155e+00
3.300000e-01 9.256751e-01 2.795686e-03 -2.795686e-03 2.558982e+00
3.310000e-01 9.259776e-01 2.815950e-03 -2.815950e-03 2.559806e+00
3.320000e-01 9.262800e-01 2.836055e-03 -2.836055e-03 2.560629e+00
3.330000e-01 9.265822e-01 2.856001e-03 -2.856001e-03 2.561449e+00
3.340000e-01 9.268843e-01 2.875789e-03 -2.875789e-03 2.562268e+00
3.350000e-01 9.271862e-01 2.895419e-03 -2.895419e-03 2.563084e+00
3.360000e-01 9.274880e-01 2.914890e-03 -2.914890e-03 2.563898e+00
3.370000e-01 9.277896e-01 2.934204e-03 -2.934204e-03 2.564710e+00
3.380000e-01 9.280910e-01 2.953360e-03 -2.953360e-03 2.565519e+00
3.390000e-01 9.283923e-01 2.972359e-03 -2.972359e-03 2.566326e+00
3.400000e-01 9.286935e-01 2.991201e-03 -2.991201e-03 2.567131e+00
3.410000e-01 9.289944e-01 3.009887e-03 -3.009887e-03 2.567934e+00
3.420000e-01 9.292952e-01 3.028416e-03 -3.028416e-03 2.568734e+00
3.430000e-01 9.295958e-01 3.046790e-03 -3.046790e-03 2.569531e+00
3.440000e-01 9.298963e-01 3.065008e-03 -3.065008e-03 2.570326e+00
3.450000e-01 9.301966e-01 3.083071e-03 -3.083071e-03 2.571119e+00
3.460000e-01 9.304967e-01 3.100980e-03 -3.100980e-03 2.571909e+00
3.470000e-01 9.307966e-01 3.118735e-03 -3.118735e-03 2.572696e+00
3.480000e-01 9.310964e-01 3.136336e-03 -3.136336e-03 2.573481e+00
3.490000e-01 9.313960e-01 3.153785e-03 -3.153785e-03 2.574263e+00
3.500000e-01 9.316953e-01 3.171081e-03 -3.171081e-03 2.575042e+00
3.510000e-01 9.319945e-01 3.188225e-03 -3.188225e-03 2.575819e+00
3.520000e-01 9.322936e-01 3.205217e-03 -3.205217e-03 2.576593e+00
3.530000e-01 9.325924e-01 3.222059e-03 -3.222059e-03 2.577364e+00
3.540000e-01 9.328910e-01 3.238750e-03 -3.238750e-03 2.578132e+00
3.550000e-01 9.331895e-01 3.255291e-03 -3.255291e-03 2.578898e+00
3.560000e-01 9.334877e-01 3.271683e-03 -3.271683e-03 2.579660e+00
3.570000e-01 9.337858e-01 3.287927e-03 -3.287927e-03 2.580420e+00
3.580000e-01 9.340836e-01 3.304022e-03 -3.304022e-03 2.581176e+00
3.590000e-01 9.343813e-01 3.319970e-03 -3.319970e-03 2.581930e+00
3.600000e-01 9.346787e-01 3.335771e-03 -3.335771e-03 2.582681e+00
3.610000e-01 9.349759e-01 3.351426e-03 -3.351426e-03 2.583428e+00
3.620000e-01 9.352730e-01 3.366935e-03 -3.366935e-03 2.584173e+00
3.630000e-01 9.355698e-01 3.382299e-03 -3.382299e-03 2.584914e+00
3.640000e-01 9.358664e-01 3.397519e-03 -3.397519e-03 2.585652e+00
3.650000e-01 9.361628e-01 3.412595e-03 -3.412595e-03 2.586387e+00
3.660000e-01 9.364590e-01 3.427527e-03 -3.427527e-03 2.587119e+00
3.670000e-01 9.367549e-01 3.442317e-03 -3.442317e-03 2.587847e+00
3.680000e-01 9.370507e-01 3.456965e-03 -3.456965e-03 2.588573e+00
3.690000e-01 9.373462e-01 3.471471e-03 -3.471471e-03 2.589295e+00
3.700000e-01 9.376415e-01 3.485837e-03 -3.485837e-03 2.590014e+00
3.710000e-01 9.379365e-01 3.500062e-03 -3.500062e-03 2.590729e+00
3.720000e-01 9.382313e-01 3.514148e-03 -3.514148e-03 2.591441e+00
3.730000e-01 9.385259e-01 3.528095e-03 -3.528095e-03 2.592150e+00
3.740000e-01 9.388203e-01 3.541903e-03 -3.541903e-03 2.592855e+00
3.750000e-01 9.391144e-01 3.555574e-03 -3.555574e-03 2.593557e+00
3.760000e-01 9.394083e-01 3.569107e-03 -3.569107e-03 2.594255e+00
3.770000e-01 9.397020e-01 3.582504e-03 -3.582504e-03 2.594950e+00
3.780000e-01 9.399954e-01 3.595765e-03 -3.595765e-03 2.595641e+00
3.790000e-01 9.402886e-01 3.608890e-03 -3.608890e-03 2.596329e+00
3.800000e-01 9.405815e-01 3.621880e-03 -3.621880e-03 2.597013e+00
3.810000e-01 9.408742e-01 3.634735e-03 -3.634735e-03 2.597694e+00
3.820000e-01 9.411666e-01 3.647457e-03 -3.647457e-03 2.598371e+00
3.830000e-01 9.414588e-01 3.660045e-03 -3.660045e-03 2.599044e+00
3.840000e-01 9.417507e-01 3.672501e-03 -3.672501e-03 2.599714e+00
3.850000e-01 9.420423e-01 3.684824e-03 -3.684824e-03 2.600380e+00
3.860000e-01 9.423337e-01 3.697015e-03 -3.697015e-03 2.601042e+00
3.870000e-01 9.426248e-01 3.709075e-03 -3.709075e-03 2.601701e+00
3.880000e-01 9.429157e-01 3.721004e-03 -3.721004e-03 2.602356e+00
3.890000e-01 9.432063e-01 3.732802e-03 -3.732802e-03 2.603007e+00
3.900000e-01 9.434966e-01 3.744470e-03 -3.744470e-03 2.603654e+00
3.910000e-01 9.437867e-01 3.756009e-03 -3.756009e-03 2.604298e+00
3.920000e-01 9.440765e-01 3.767419e-03 -3.767419e-03 2.604938e+00
3.930000e-01 9.443660e-01 3.778700e-03 -3.778700e-03 2.605574e+00
3.940000e-01 9.446552e-01 3.789852e-03 -3.789852e-03 2.606206e+00
3.950000e-01 9.449442e-01 3.800877e-03 -3.800877e-03 2.606834e+00
3.960000e-01 9.452328e-01 3.811773e-03 -3.811773e-03 2.607459e+00
3.970000e-01 9.455212e-01 3.822543e-03 -3.822543e-03 2.608079e+00
3.980000e-01 9.458093e-01 3.833185e-03 -3.833185e-03 2.608696e+00
3.990000e-01 9.460971e-01 3.843701e-03 -3.843701e-03 2.609309e+00
4.000000e-01 9.463846e-01 3.854091e-03 -3.854091e-03 2.609917e+00
4.010000e-01 9.466718e-01 3.864354e-03 -3.864354e-03 2.610522e+00
4.020000e-01 9.469587e-01 3.874492e-03 -3.874492e-03 2.611123e+00
4.030000e-01 9.472453e-01 3.884504e-03 -3.884504e-03 2.611720e+00
4.040000e-01 9.475316e-01 3.894390e-03 -3.894390e-03 2.612313e+00
4.050000e-01 9.478176e-01 3.904151e-03 -3.904151e-03 2.612902e+00
4.060000e-01 9.481033e-01 3.913788e-03 -3.913788e-03 2.613487e+00
4.070000e-01 9.483887e-01 3.923300e-03 -3.923300e-03 2.614068e+00
4.080000e-01 9.486738e-01 3.932687e-03 -3.932687e-03 2.614645e+00
4.090000e-01 9.489585e-01 3.941949e-03 -3.941949e-03 2.615218e+00
4.100000e-01 9.492430e-01 3.951087e-03 -3.951087e-03 2.615787e+00
4.110000e-01 9.495271e-01 3.960101e-03 -3.960101e-03 2.616352e+00
4.120000e-01 9.498109e-01 3.968990e-03 -3.968990e-03 2.616913e+00
4.130000e-01 9.500943e-01 3.977756e-03 -3.977756e-03 2.617470e+00
4.140000e-01 9.503775e-01 3.986397e-03 -3.986397e-03 2.618023e+00
4.150000e-01 9.506603e-01 3.994914e-03 -3.994914e-03 2.618571e+00
4.160000e-01 9.509427e-01 4.003307e-03 -4.003307e-03 2.619116e+00
4.170000e-01 9.512248e-01 4.011575e-03 -4.011575e-03 2.619657e+00
4.180000e-01 9.515066e-01 4.019720e-03 -4.019720e-03 2.620193e+00
4.190000e-01 9.517881e-01 4.027740e-03 -4.027740e-03 2.620726e+00
4.200000e-01 9.520692e-01 4.035636e-03 -4.035636e-03 2.621254e+00
4.210000e-01 9.523499e-01 4.043407e-03 -4.043407e-03 2.621778e+00
4.220000e-01 9.526303e-01 4.051053e-03 -4.051053e-03 2.622298e+00
4.230000e-01 9.529104e-01 4.058575e-03 -4.058575e-03 2.622814e+00
4.240000e-01 9.531901e-01 4.065972e-03 -4.065972e-03 2.623326e+00
4.250000e-01 9.534694e-01 4.073243e-03 -4.073243e-03 2.623834e+00
4.260000e-01 9.537484e-01 4.080390e-03 -4.080390e-03 2.624338e+00
4.270000e-01 9.540270e-01 4.087410e-03 -4.087410e-03 2.624837e+00
4.280000e-01 9.543052e-01 4.094305e-03 -4.094305e-03 2.625333e+00
4.290000e-01 9.545831e-01 4.101073e-03 -4.101073e-03 2.625824e+00
4.300000e-01 9.548605e-01 4.107715e-03 -4.107715e-03 2.626312e+00
4.310000e-01 9.551376e-01 4.114230e-03 -4.114230e-03 2.626795e+00
4.320000e-01 9.554144e-01 4.120617e-03 -4.120617e-03 2.627274e+00
4.330000e-01 9.556907e-01 4.126877e-03 -4.126877e-03 2.627749e+00
4.340000e-01 9.559667e-01 4.133009e-03 -4.133009e-03 2.628220e+00
4.350000e-01 9.562422e-01 4.139013e-03 -4.139013e-03 2.628687e+00
4.360000e-01 9.565174e-01 4.144887e-03 -4.144887e-03 2.629150e+00
4.370000e-01 9.567922e-01 4.150632e-03 -4.150632e-03 2.629609e+00
4.380000e-01 9.570665e-01 4.156247e-03 -4.156247e-03 2.630064e+00
4.390000e-01 9.573405e-01 4.161732e-03 -4.161732e-03 2.630515e+00
4.400000e-01 9.576141e-01 4.167085e-03 -4.167085e-03 2.630961e+00
4.410000e-01 9.578872e-01 4.172307e-03 -4.172307e-03 2.631404e+00
4.420000e-01 9.581599e-01 4.177397e-03 -4.177397e-03 2.631842e+00
4.430000e-01 9.584323e-01 4.182354e-03 -4.182354e-03 2.632277e+00
4.440000e-01 9.587042e-01 4.187178e-03 -4.187178e-03 2.632708e+00
4.450000e-01 9.589756e-01 4.191867e-03 -4.191867e-03 2.633134e+00
4.460000e-01 9.592467e-01 4.196422e-03 -4.196422e-03 2.633557e+00
4.470000e-01 9.595173e-01 4.200840e-03 -4.200840e-03 2.633975e+00
4.480000e-01 9.597875e-01 4.205123e-03 -4.205123e-03 2.634390e+00
4.490000e-01 9.600572e-01 4.209268e-03 -4.209268e-03 2.634800e+00
4.500000e-01 9.603265e-01 4.213276e-03 -4.213276e-03 2.635207e+00
4.510000e-01 9.605954e-01 4.217145e-03 -4.217145e-03 2.635610e+00
4.520000e-01 9.608638e-01 4.220874e-03 -4.220874e-03 2.636009e+00
4.530000e-01 9.611318e-01 4.224463e-03 -4.224463e-03 2.636403e+00
4.540000e-01 9.613993e-01 4.227910e-03 -4.227910e-03 2.636794e+00
4.550000e-01 9.616663e-01 4.231216e-03 -4.231216e-03 2.637181e+00
4.560000e-01 9.619329e-01 4.234378e-03 -4.234378e-03 2.637565e+00
4.570000e-01 9.621990e-01 4.237395e-03 -4.237395e-03 2.637944e+00
4.580000e-01 9.624646e-01 4.240268e-03 -4.240268e-03 2.638319e+00
4.590000e-01 9.627298e-01 4.242995e-03 -4.242995e-03 2.638691e+00
4.600000e-01 9.632220e-01 3.737827e-03 -3.737827e-03 2.631734e+00
4.610000e-01 9.634864e-01 3.742584e-03 -3.742584e-03 2.631961e+00
4.620000e-01 9.637506e-01 3.746185e-03 -3.746185e-03 2.632219e+00
4.630000e-01 9.640144e-01 3.748781e-03 -3.748781e-03 2.632497e+00
4.640000e-01 9.642778e-01 3.750508e-03 -3.750508e-03 2.632786e+00
4.650000e-01 9.645409e-01 3.751481e-03 -3.751481e-03 2.633082e+00
4.660000e-01 9.648036e-01 3.751801e-03 -3.751801e-03 2.633380e+00
4.670000e-01 9.650658e-01 3.751550e-03 -3.751550e-03 2.633678e+00
4.680000e-01 9.653276e-01 3.750795e-03 -3.750795e-03 2.633974e+00
4.690000e-01 9.655889e-01 3.749595e-03 -3.749595e-03 2.634268e+00
4.700000e-01 9.658498e-01 3.747994e-03 -3.747994e-03 2.634558e+00
4.710000e-01 9.661101e-01 3.746033e-03 -3.746033e-03 2.634845e+00
4.720000e-01 9.663700e-01 3.743742e-03 -3.743742e-03 2.635127e+00
4.730000e-01 9.666294e-01 3.741149e-03 -3.741149e-03 2.635404e+00
4.740000e-01 9.668883e-01 3.738276e-03 -3.738276e-03 2.635678e+00
4.750000e-01 9.671467e-01 3.735141e-03 -3.735141e-03 2.635947e+00
4.760000e-01 9.674046e-01 3.731761e-03 -3.731761e-03 2.636211e+00
4.770000e-01 9.676619e-01 3.728149e-03 -3.728149e-03 2.636471e+00
4.780000e-01 9.679187e-01 3.724316e-03 -3.724316e-03 2.636727e+00
4.790000e-01 9.681750e-01 3.720272e-03 -3.720272e-03 2.636979e+00
4.800000e-01 9.684308e-01 3.716026e-03 -3.716026e-03 2.637227e+00
4.810000e-01 9.686859e-01 3.711585e-03 -3.711585e-03 2.637470e+00
4.820000e-01 9.689406e-01 3.706956e-03 -3.706956e-03 2.637710e+00
4.830000e-01 9.691947e-01 3.702143e-03 -3.702143e-03 2.637947e+00
4.840000e-01 9.694482e-01 3.697152e-03 -3.697152e-03 2.638180e+00
4.850000e-01 9.697011e-01 3.691987e-03 -3.691987e-03 2.638409e+00
4.860000e-01 9.699535e-01 3.686651e-03 -3.686651e-03 2.638634e+00
4.870000e-01 9.702053e-01 3.681147e-03 -3.681147e-03 2.638857e+00
4.880000e-01 9.704565e-01 3.675478e-03 -3.675478e-03 2.639076e+00
4.890000e-01 9.707071e-01 3.669646e-03 -3.669646e-03 2.639292e+00
4.900000e-01 9.709571e-01 3.663653e-03 -3.663653e-03 2.639505e+00
4.910000e-01 9.712066e-01 3.657500e-03 -3.657500e-03 2.639715e+00
4.920000e-01 9.714554e-01 3.651188e-03 -3.651188e-03 2.639922e+00
4.930000e-01 9.717036e-01 3.644720e-03 -3.644720e-03 2.640126e+00
4.940000e-01 9.719512e-01 3.638094e-03 -3.638094e-03 2.640327e+00
4.950000e-01 9.721982e-01 3.631313e-03 -3.631313e-03 2.640525e+00
4.960000e-01 9.724446e-01 3.624376e-03 -3.624376e-03 2.640721e+00
4.970000e-01 9.726903e-01 3.617284e-03 -3.617284e-03 2.640914e+00
4.980000e-01 9.729354e-01 3.610037e-03 -3.610037e-03 2.641104e+00
4.990000e-01 9.731799e-01 3.602635e-03 -3.602635e-03 2.641292e+00
5.000000e-01 9.734237e-01 3.595078e-03 -3.595078e-03 2.641477e+00
5.010000e-01 9.736668e-01 3.587365e-03 -3.587365e-03 2.641660e+00
5.020000e-01 9.739093e-01 3.579497e-03 -3.579497e-03 2.641841e+00
5.030000e-01 9.741512e-01 3.571473e-03 -3.571473e-03 2.642019e+00
5.040000e-01 9.743924e-01 3.563292e-03 -3.563292e-03 2.642195e+00
5.050000e-01 9.746329e-01 3.554955e-03 -3.554955e-03 2.642369e+00
5.060000e-01 9.748727e-01 3.546460e-03 -3.546460e-03 2.642540e+00
5.070000e-01 9.751118e-01 3.537808e-03 -3.537808e-03 2.642710e+00
5.080000e-01 9.753503e-01 3.528997e-03 -3.528997e-03 2.642878e+00
5.090000e-01 9.755880e-01 3.520027e-03 -3.520027e-03 2.643043e+00
5.100000e-01 9.758251e-01 3.510898e-03 -3.510898e-03 2.643207e+00
5.110000e-01 9.760614e-01 3.501608e-03 -3.501608e-03 2.643369e+00
5.120000e-01 9.762970e-01 3.492156e-03 -3.492156e-03 2.643529e+00
5.130000e-01 9.765320e-01 3.482544e-03 -3.482544e-03 2.643687e+00
5.140000e-01 9.767661e-01 3.472768e-03 -3.472768e-03 2.643844e+00
5.150000e-01 9.769996e-01 3.462829e-03 -3.462829e-03 2.643999e+00
5.160000e-01 9.772323e-01 3.452726e-03 -3.452726e-03 2.644153e+00
5.170000e-01 9.774643e-01 3.442459e-03 -3.442459e-03 2.644305e+00
5.180000e-01 9.776955e-01 3.432026e-03 -3.432026e-03 2.644456e+00
5.190000e-01 9.779260e-01 3.421426e-03 -3.421426e-03 2.644605e+00
5.200000e-01 9.781557e-01 3.410660e-03 -3.410660e-03 2.644753e+00
5.210000e-01 9.783847e-01 3.399725e-03 -3.399725e-03 2.644900e+00
5.220000e-01 9.786128e-01 3.388623e-03 -3.388623e-03 2.645046e+00
5.230000e-01 9.788402e-01 3.377350e-03 -3.377350e-03 2.645191e+00
5.240000e-01 9.790668e-01 3.365908e-03 -3.365908e-03 2.645334e+00
5.250000e-01 9.792926e-01 3.354295e-03 -3.354295e-03 2.645477e+00
5.260000e-01 9.795176e-01 3.342511e-03 -3.342511e-03 2.645619e+00
5.270000e-01 9.797418e-01 3.330554e-03 -3.330554e-03 2.645760e+00
5.280000e-01 9.799652e-01 3.318424e-03 -3.318424e-03 2.645901e+00
5.290000e-01 9.801878e-01 3.306121e-03 -3.306121e-03 2.646041e+00
5.300000e-01 9.804095e-01 3.293644e-03 -3.293644e-03 2.646180e+00
5.310000e-01 9.806304e-01 3.280991e-03 -3.280991e-03 2.646319e+00
5.320000e-01 9.808505e-01 3.268163e-03 -3.268163e-03 2.646457e+00
5.330000e-01 9.810697e-01 3.255159e-03 -3.255159e-03 2.646595e+00
5.340000e-01 9.812880e-01 3.241978e-03 -3.241978e-03 2.646733e+00
5.350000e-01 9.815055e-01 3.228619e-03 -3.228619e-03 2.646870e+00
5.360000e-01 9.817221e-01 3.215083e-03 -3.215083e-03 2.647008e+00
5.370000e-01 9.819379e-01 3.201367e-03 -3.201367e-03 2.647145e+00
5.380000e-01 9.821527e-01 3.187473e-03 -3.187473e-03 2.647283e+00
5.390000e-01 9.823667e-01 3.173399e-03 -3.173399e-03 2.647421e+00
5.400000e-01 9.825798e-01 3.159144e-03 -3.159144e-03 2.647559e+00
5.410000e-01 9.827919e-01 3.144709e-03 -3.144709e-03 2.647697e+00
5.420000e-01 9.830032e-01 3.130093e-03 -3.130093e-03 2.647835e+00
5.430000e-01 9.832135e-01 3.115294e-03 -3.115294e-03 2.647975e+00
5.440000e-01 9.834229e-01 3.100314e-03 -3.100314e-03 2.648114e+00
5.450000e-01 9.836314e-01 3.085151e-03 -3.085151e-03 2.648255e+00
5.460000e-01 9.838389e-01 3.069805e-03 -3.069805e-03 2.648396e+00
5.470000e-01 9.840455e-01 3.054275e-03 -3.054275e-03 2.648538e+00
5.480000e-01 9.842511e-01 3.038562e-03 -3.038562e-03 2.648680e+00
5.490000e-01 9.844557e-01 3.022664e-03 -3.022664e-03 2.648824e+00
5.500000e-01 9.846594e-01 3.006582e-03 -3.006582e-03 2.648969e+00
5.510000e-01 9.848620e-01 2.990315e-03 -2.990315e-03 2.649115e+00
5.520000e-01 9.850637e-01 2.973862e-03 -2.973862e-03 2.649262e+00
5.530000e-01 9.852644e-01 2.957224e-03 -2.957224e-03 2.649411e+00
5.540000e-01 9.854641e-01 2.940399e-03 -2.940399e-03 2.649560e+00
5.550000e-01 9.856627e-01 2.923389e-03 -2.923389e-03 2.649712e+00
5.560000e-01 9.858603e-01 2.906191e-03 -2.906191e-03 2.649865e+00
5.570000e-01 9.860569e-01 2.888807e-03 -2.888807e-03 2.650019e+00
5.580000e-01 9.862525e-01 2.871236e-03 -2.871236e-03 2.650176e+00
5.590000e-01 9.864470e-01 2.853477e-03 -2.853477e-03 2.650334e+00
5.600000e-01 9.866404e-01 2.835530e-03 -2.835530e-03 2.650494e+00
5.610000e-01 9.868328e-01 2.817395e-03 -2.817395e-03 2.650656e+00
5.620000e-01 9.870241e-01 2.799072e-03 -2.799072e-03 2.650820e+00
5.630000e-01 9.872143e-01 2.780560e-03 -2.780560e-03 2.650986e+00
5.640000e-01 9.874034e-01 2.761860e-03 -2.761860e-03 2.651154e+00
5.650000e-01 9.875914e-01 2.742969e-03 -2.742969e-03 2.651325e+00
5.660000e-01 9.877783e-01 2.723889e-03 -2.723889e-03 2.651497e+00
5.670000e-01 9.879641e-01 2.704620e-03 -2.704620e-03 2.651673e+00
5.680000e-01 9.881487e-01 2.685159e-03 -2.685159e-03 2.651850e+00
5.690000e-01 9.883322e-01 2.665509e-03 -2.665509e-03 2.652030e+00
5.700000e-01 9.885146e-01 2.645667e-03 -2.645667e-03 2.652213e+00
5.710000e-01 9.886958e-01 2.625633e-03 -2.625633e-03 2.652398e+00
5.720000e-01 9.888758e-01 2.605408e-03 -2.605408e-03 2.652586e+00
5.730000e-01 9.890546e-01 2.584990e-03 -2.584990e-03 2.652777e+00
5.740000e-01 9.892323e-01 2.564379e-03 -2.564379e-03 2.652971e+00
5.750000e-01 9.894088e-01 2.543575e-03 -2.543575e-03 2.653167e+00
5.760000e-01 9.895840e-01 2.522577e-03 -2.522577e-03 2.653366e+00
5.770000e-01 9.897581e-01 2.501385e-03 -2.501385e-03 2.653568e+00
5.780000e-01 9.899309e-01 2.479997e-03 -2.479997e-03 2.653773e+00
5.790000e-01 9.901025e-01 2.458414e-03 -2.458414e-03 2.653981e+00
5.800000e-01 9.902728e-01 2.436635e-03 -2.436635e-03 2.654192e+00
5.810000e-01 9.904419e-01 2.414658e-03 -2.414658e-03 2.654406e+00
5.820000e-01 9.906098e-01 2.392484e-03 -2.392484e-03 2.654623e+00
5.830000e-01 9.907763e-01 2.370111e-03 -2.370111e-03 2.654843e+00
5.840000e-01 9.909416e-01 2.347538e-03 -2.347538e-03 2.655067e+00
5.850000e-01 9.911056e-01 2.324766e-03 -2.324766e-03 2.655293e+00
5.860000e-01 9.912683e-01 2.301793e-03 -2.301793e-03 2.655522e+00
5.870000e-01 9.914297e-01 2.278617e-03 -2.278617e-03 2.655755e+00
5.880000e-01 9.915897e-01 2.255239e-03 -2.255239e-03 2.655990e+00
5.890000e-01 9.917485e-01 2.231657e-03 -2.231657e-03 2.656229e+00
5.900000e-01 9.919059e-01 2.207870e-03 -2.207870e-03 2.656471e+00
5.910000e-01 9.921648e-01 3.203598e-03 -3.203598e-03 2.649537e+00
5.920000e-01 9.923191e-01 3.184553e-03 -3.184553e-03 2.649578e+00
5.930000e-01 9.924723e-01 3.159026e-03 -3.159026e-03 2.649738e+00
5.940000e-01 9.926245e-01 3.129313e-03 -3.129313e-03 2.649960e+00
5.950000e-01 9.927754e-01 3.096710e-03 -3.096710e-03 2.650216e+00
5.960000e-01 9.929252e-01 3.062004e-03 -3.062004e-03 2.650491e+00
5.970000e-01 9.930736e-01 3.025711e-03 -3.025711e-03 2.650777e+00
5.980000e-01 9.932208e-01 2.988192e-03 -2.988192e-03 2.651070e+00
5.990000e-01 9.933667e-01 2.949704e-03 -2.949704e-03 2.651369e+00
6.000000e-01 9.935112e-01 2.910440e-03 -2.910440e-03 2.651672e+00
6.010000e-01 9.936544e-01 2.870540e-03 -2.870540e-03 2.651979e+00
6.020000e-01 9.937961e-01 2.830106e-03 -2.830106e-03 2.652290e+00
6.030000e-01 9.939365e-01 2.789212e-03 -2.789212e-03 2.652604e+00
6.040000e-01 9.940755e-01 2.747908e-03 -2.747908e-03 2.652922e+00
6.050000e-01 9.942130e-01 2.706228e-03 -2.706228e-03 2.653245e+00
6.060000e-01 9.943492e-01 2.664191e-03 -2.664191e-03 2.653571e+00
6.070000e-01 9.944838e-01 2.621808e-03 -2.621808e-03 2.653902e+00
6.080000e-01 9.946171e-01 2.579082e-03 -2.579082e-03 2.654238e+00
6.090000e-01 9.947488e-01 2.536012e-03 -2.536012e-03 2.654578e+00
6.100000e-01 9.948791e-01 2.492593e-03 -2.492593e-03 2.654924e+00
6.110000e-01 9.950079e-01 2.448817e-03 -2.448817e-03 2.655274e+00
6.120000e-01 9.951352e-01 2.404677e-03 -2.404677e-03 2.655631e+00
6.130000e-01 9.952610e-01 2.360163e-03 -2.360163e-03 2.655992e+00
6.140000e-01 9.953853e-01 2.315269e-03 -2.315269e-03 2.656359e+00
6.150000e-01 9.955080e-01 2.269984e-03 -2.269984e-03 2.656732e+00
6.160000e-01 9.956292e-01 2.224301e-03 -2.224301e-03 2.657110e+00
6.170000e-01 9.957489e-01 2.178214e-03 -2.178214e-03 2.657495e+00
6.180000e-01 9.958670e-01 2.131714e-03 -2.131714e-03 2.657885e+00
6.190000e-01 9.959835e-01 2.084797e-03 -2.084797e-03 2.658281e+00
6.200000e-01 9.960984e-01 2.037456e-03 -2.037456e-03 2.658682e+00
6.210000e-01 9.962118e-01 1.989687e-03 -1.989687e-03 2.659090e+00
6.220000e-01 9.963235e-01 1.941486e-03 -1.941486e-03 2.659503e+00
6.230000e-01 9.964337e-01 1.892848e-03 -1.892848e-03 2.659921e+00
6.240000e-01 9.965422e-01 1.843771e-03 -1.843771e-03 2.660345e+00
6.250000e-01 9.966491e-01 1.794251e-03 -1.794251e-03 2.660775e+00
6.260000e-01 9.967544e-01 1.744287e-03 -1.744287e-03 2.661209e+00
6.270000e-01 9.968580e-01 1.693877e-03 -1.693877e-03 2.661649e+00
6.280000e-01 9.969600e-01 1.643018e-03 -1.643018e-03 2.662093e+00
6.290000e-01 9.970602e-01 1.591712e-03 -1.591712e-03 2.662542e+00
6.300000e-01 9.971588e-01 1.539957e-03 -1.539957e-03 2.662995e+00
6.310000e-01 9.972558e-01 1.487754e-03 -1.487754e-03 2.663452e+00
6.320000e-01 9.973510e-01 1.435105e-03 -1.435105e-03 2.663913e+00
6.330000e-01 9.974445e-01 1.382013e-03 -1.382013e-03 2.664376e+00
6.340000e-01 9.975363e-01 1.328481e-03 -1.328481e-03 2.664843e+00
6.350000e-01 9.976263e-01 1.274514e-03 -1.274514e-03 2.665313e+00
6.360000e-01 9.977147e-01 1.220118e-03 -1.220118e-03 2.665784e+00
6.370000e-01 9.978013e-01 1.165302e-03 -1.165302e-03 2.666257e+00
6.380000e-01 9.978861e-01 1.110075e-03 -1.110075e-03 2.666731e+00
6.390000e-01 9.979692e-01 1.054449e-03 -1.054449e-03 2.667206e+00
6.400000e-01 9.980505e-01 9.984377e-04 -9.984377e-04 2.667681e+00
6.410000e-01 9.981301e-01 9.420567e-04 -9.420567e-04 2.668155e+00
6.420000e-01 9.982538e-01 3.918880e-03 -3.918880e-03 2.663057e+00
6.430000e-01 9.983298e-01 3.880120e-03 -3.880120e-03 2.663274e+00
6.440000e-01 9.984045e-01 3.827670e-03 -3.827670e-03 2.663667e+00
6.450000e-01 9.984778e-01 3.769981e-03 -3.769981e-03 2.664133e+00
6.460000e-01 9.985495e-01 3.710050e-03 -3.710050e-03 2.664629e+00
6.470000e-01 9.986196e-01 3.649043e-03 -3.649043e-03 2.665136e+00
6.480000e-01 9.986880e-01 3.587410e-03 -3.587410e-03 2.665646e+00
6.490000e-01 9.987548e-01 3.525281e-03 -3.525281e-03 2.666155e+00
6.500000e-01 9.988198e-01 3.462648e-03 -3.462648e-03 2.666660e+00
6.510000e-01 9.988831e-01 3.399455e-03 -3.399455e-03 2.667162e+00
6.520000e-01 9.989446e-01 3.335635e-03 -3.335635e-03 2.667661e+00
6.530000e-01 9.990044e-01 3.271137e-03 -3.271137e-03 2.668155e+00
6.540000e-01 9.990624e-01 3.205929e-03 -3.205929e-03 2.668646e+00
6.550000e-01 9.991187e-01 3.140003e-03 -3.140003e-03 2.669133e+00
6.560000e-01 9.991731e-01 3.073367e-03 -3.073367e-03 2.669615e+00
6.570000e-01 9.992258e-01 3.006045e-03 -3.006045e-03 2.670091e+00
6.580000e-01 9.992766e-01 2.938075e-03 -2.938075e-03 2.670561e+00
6.590000e-01 9.993257e-01 2.869502e-03 -2.869502e-03 2.671024e+00
6.600000e-01 9.993729e-01 2.800382e-03 -2.800382e-03 2.671476e+00
6.610000e-01 9.994183e-01 2.730775e-03 -2.730775e-03 2.671917e+00
6.620000e-01 9.994619e-01 2.660750e-03 -2.660750e-03 2.672344e+00
6.630000e-01 9.995285e-01 -3.930429e-03 3.930429e-03 2.666459e+00
6.640000e-01 9.995667e-01 -3.965690e-03 3.965690e-03 2.666172e+00
6.650000e-01 9.996038e-01 -4.003391e-03 4.003391e-03 2.666242e+00
6.660000e-01 9.996395e-01 -4.044778e-03 4.044778e-03 2.666441e+00
6.670000e-01 9.996735e-01 -4.089703e-03 4.089703e-03 2.666696e+00
6.680000e-01 9.997059e-01 -4.137610e-03 4.137610e-03 2.666975e+00
6.690000e-01 9.997365e-01 -4.187897e-03 4.187897e-03 2.667260e+00
6.700000e-01 9.997654e-01 -4.240024e-03 4.240024e-03 2.667542e+00
6.710000e-01 9.997925e-01 -4.293538e-03 4.293538e-03 2.667811e+00
6.720000e-01 9.998177e-01 -4.348041e-03 4.348041e-03 2.668065e+00
6.730000e-01 9.998413e-01 -4.403155e-03 4.403155e-03 2.668298e+00
6.740000e-01 9.998630e-01 -4.458480e-03 4.458480e-03 2.668511e+00
6.750000e-01 9.998829e-01 -4.513563e-03 4.513563e-03 2.668702e+00
6.760000e-01 9.999111e-01 -3.203925e-03 3.203925e-03 2.668938e+00
6.770000e-01 9.999259e-01 -3.235622e-03 3.235622e-03 2.669084e+00
6.780000e-01 9.999396e-01 -3.283625e-03 3.283625e-03 2.669371e+00
6.790000e-01 9.999519e-01 -3.337219e-03 3.337219e-03 2.669719e+00
6.800000e-01 9.999628e-01 -3.392917e-03 3.392917e-03 2.670080e+00
6.810000e-01 9.999720e-01 -3.448447e-03 3.448447e-03 2.670424e+00
6.820000e-01 9.999798e-01 -3.501941e-03 3.501941e-03 2.670729e+00
6.830000e-01 9.999862e-01 -3.551903e-03 3.551903e-03 2.670978e+00
6.840000e-01 9.999912e-01 -3.597298e-03 3.597298e-03 2.671158e+00
6.850000e-01 9.999950e-01 -3.637292e-03 3.637292e-03 2.671262e+00
6.860000e-01 9.999977e-01 -3.715619e-03 3.715619e-03 2.671892e+00
6.870000e-01 9.999991e-01 -3.748923e-03 3.748923e-03 2.673008e+00
6.880000e-01 9.999996e-01 -3.734553e-03 3.734553e-03 2.672336e+00
6.890000e-01 9.999999e-01 -3.734966e-03 3.734966e-03 2.672143e+00
6.900000e-01 1.000000e+00 -2.098605e-04 2.098605e-04 2.665182e+00
6.910000e-01 1.000000e+00 -2.085122e-04 2.085122e-04 2.665271e+00
6.920000e-01 1.000000e+00 -2.071669e-04 2.071669e-04 2.665359e+00
6.930000e-01 1.000000e+00 -2.058244e-04 2.058244e-04 2.665448e+00
6.940000e-01 1.000000e+00 -2.044848e-04 2.044848e-04 2.665537e+00
6.950000e-01 1.000000e+00 -2.031481e-04 2.031481e-04 2.665626e+00
6.960000e-01 1.000000e+00 -2.018144e-04 2.018144e-04 2.665715e+00
6.970000e-01 1.000000e+00 -2.004835e-04 2.004835e-04 2.665804e+00
6.980000e-01 1.000000e+00 -1.991555e-04 1.991555e-04 2.665894e+00
6.990000e-01 1.000000e+00 -1.978303e-04 1.978303e-04 2.665983e+00
7.000000e-01 1.000000e+00 -1.965081e-04 1.965081e-04 2.666073e+00
7.010000e-01 1.000000e+00 -1.951887e-04 1.951887e-04 2.666163e+00
7.020000e-01 1.000000e+00 -1.938722e-04 1.938722e-04 2.666252e+00
7.030000e-01 1.000000e+00 -1.925585e-04 1.925585e-04 2.666342e+00
7.040000e-01 1.000000e+00 -1.912478e-04 1.912478e-04 2.666433e+00
7.050000e-01 1.000000e+00 -1.899398e-04 1.899398e-04 2.666523e+00
7.060000e-01 1.000000e+00 -1.886348e-04 1.886348e-04 2.666613e+00
7.070000e-01 1.000000e+00 -1.873325e-04 1.873325e-04 2.666704e+00
7.080000e-01 1.000000e+00 -1.860332e-04 1.860332e-04 2.666795e+00
7.090000e-01 1.000000e+00 -1.847366e-04 1.847366e-04 2.666886e+00
7.100000e-01 1.000000e+00 -1.834429e-04 1.834429e-04 2.666977e+00
7.110000e-01 1.000000e+00 -1.821521e-04 1.821521e-04 2.667068e+00
7.120000e-01 1.000000e+00 -1.808640e-04 1.808640e-04 2.667159e+00
7.130000e-01 1.000000e+00 -1.795788e-04 1.795788e-04 2.667250e+00
7.140000e-01 1.000000e+00 -1.782964e-04 1.782964e-04 2.667342e+00
7.150000e-01 1.000000e+00 -1.770169e-04 1.770169e-04 2.667434e+00
7.160000e-01 1.000000e+00 -1.757401e-04 1.757401e-04 2.667525e+00
7.170000e-01 1.000000e+00 -1.744662e-04 1.744662e-04 2.667617e+00
7.180000e-01 1.000000e+00 -1.731950e-04 1.731950e-04 2.667709e+00
7.190000e-01 1.000000e+00 -1.719267e-04 1.719267e-04 2.667802e+00
7.200000e-01 1.000000e+00 -1.706611e-04 1.706611e-04 2.667894e+00
7.210000e-01 1.000000e+00 -1.693984e-04 1.693984e-04 2.667986e+00
7.220000e-01 1.000000e+00 -1.681384e-04 1.681384e-04 2.668079e+00
7.230000e-01 1.000000e+00 -1.668812e-04 1.668812e-04 2.668172e+00
7.240000e-01 1.000000e+00 -1.656268e-04 1.656268e-04 2.668264e+00
7.250000e-01 1.000000e+00 -1.643751e-04 1.643751e-04 2.668357e+00
7.260000e-01 1.000000e+00 -1.631263e-04 1.631263e-04 2.668451e+00
7.270000e-01 1.000000e+00 -1.618802e-04 1.618802e-04 2.668544e+00
7.280000e-01 1.000000e+00 -1.606368e-04 1.606368e-04 2.668637e+00
7.290000e-01 1.000000e+00 -1.593963e-04 1.593963e-04 2.668731e+00
7.300000e-01 1.000000e+00 -1.581584e-04 1.581584e-04 2.668824e+00
7.310000e-01 1.000000e+00 -1.569234e-04 1.569234e-04 2.668918e+00
7.320000e-01 1.000000e+00 -1.556910e-04 1.556910e-04 2.669012e+00
7.330000e-01 1.000000e+00 -1.544614e-04 1.544614e-04 2.669106e+00
7.340000e-01 1.000000e+00 -1.532346e-04 1.532346e-04 2.669200e+00
7.350000e-01 1.000000e+00 -1.520105e-04 1.520105e-04 2.669295e+00
7.360000e-01 1.000000e+00 -1.507891e-04 1.507891e-04 2.669389e+00
7.370000e-01 1.000000e+00 -1.495704e-04 1.495704e-04 2.669484e+00
7.380000e-01 1.000000e+00 -1.483544e-04 1.483544e-04 2.669578e+00
7.390000e-01 1.000000e+00 -1.471412e-04 1.471412e-04 2.669673e+00
7.400000e-01 1.000000e+00 -1.459307e-04 1.459307e-04 2.669768e+00
7.410000e-01 1.000000e+00 -1.447228e-04 1.447228e-04 2.669863e+00
7.420000e-01 1.000000e+00 -1.435177e-04 1.435177e-04 2.669959e+00
7.430000e-01 1.000000e+00 -1.423153e-04 1.423153e-04 2.670054e+00
7.440000e-01 1.000000e+00 -1.411155e-04 1.411155e-04 2.670149e+00
7.450000e-01 1.000000e+00 -1.399185e-04 1.399185e-04 2.670245e+00
7.460000e-01 1.000000e+00 -1.387241e-04 1.387241e-04 2.670341e+00
7.470000e-01 1.000000e+00 -1.375324e-04 1.375324e-04 2.670437e+00
7.480000e-01 1.000000e+00 -1.363434e-04 1.363434e-04 2.670533e+00
7.490000e-01 1.000000e+00 -1.351571e-04 1.351571e-04 2.670629e+00
7.500000e-01 1.000000e+00 -1.339734e-04 1.339734e-04 2.670725e+00
7.510000e-01 1.000000e+00 -1.327924e-04 1.327924e-04 2.670822e+00
7.520000e-01 1.000000e+00 -1.316140e-04 1.316140e-04 2.670918e+00
7.530000e-01 1.000000e+00 -1.304383e-04 1.304383e-04 2.671015e+00
7.540000e-01 1.000000e+00 -1.292653e-04 1.292653e-04 2.671111e+00
7.550000e-01 1.000000e+00 -1.280948e-04 1.280948e-04 2.671208e+00
7.560000e-01 1.000000e+00 -1.269271e-04 1.269271e-04 2.671305e+00
7.570000e-01 1.000000e+00 -1.257619e-04 1.257619e-04 2.671403e+00
7.580000e-01 1.000000e+00 -1.245994e-04 1.245994e-04 2.671500e+00
7.590000e-01 1.000000e+00 -1.234395e-04 1.234395e-04 2.671597e+00
7.600000e-01 1.000000e+00 -1.222822e-04 1.222822e-04 2.671695e+00
7.610000e-01 1.000000e+00 -1.211276e-04 1.211276e-04 2.671793e+00
7.620000e-01 1.000000e+00 -1.199755e-04 1.199755e-04 2.671890e+00
7.630000e-01 1.000000e+00 -1.188261e-04 1.188261e-04 2.671988e+00
7.640000e-01 1.000000e+00 -1.176793e-04 1.176793e-04 2.672086e+00
7.650000e-01 1.000000e+00 -1.165350e-04 1.165350e-04 2.672185e+00
7.660000e-01 1.000000e+00 -1.153934e-04 1.153934e-04 2.672283e+00
7.670000e-01 1.000000e+00 -1.142543e-04 1.142543e-04 2.672381e+00
7.680000e-01 1.000000e+00 -1.131179e-04 1.131179e-04 2.672480e+00
7.690000e-01 1.000000e+00 -1.119840e-04 1.119840e-04 2.672579e+00
7.700000e-01 1.000000e+00 -1.108526e-04 1.108526e-04 2.672677e+00
7.710000e-01 1.000000e+00 -1.097239e-04 1.097239e-04 2.672776e+00
7.720000e-01 1.000000e+00 -1.085977e-04 1.085977e-04 2.672876e+00
7.730000e-01 1.000000e+00 -1.074741e-04 1.074741e-04 2.672975e+00
7.740000e-01 1.000000e+00 -1.063530e-04 1.063530e-04 2.673074e+00
7.750000e-01 1.000000e+00 -1.052345e-04 1.052345e-04 2.673174e+00
7.760000e-01 1.000000e+00 -1.041186e-04 1.041186e-04 2.673273e+00
7.770000e-01 1.000000e+00 -1.030051e-04 1.030051e-04 2.673373e+00
7.780000e-01 1.000000e+00 -1.018943e-04 1.018943e-04 2.673473e+00
7.790000e-01 1.000000e+00 -1.007859e-04 1.007859e-04 2.673573e+00
7.800000e-01 1.000000e+00 -9.968008e-05 9.968008e-05 2.673673e+00
7.810000e-01 1.000000e+00 -9.857679e-05 9.857679e-05 2.673773e+00
7.820000e-01 1.000000e+00 -9.747601e-05 9.747601e-05 2.673873e+00
7.830000e-01 1.000000e+00 -9.637775e-05 9.637775e-05 2.673974e+00
7.840000e-01 1.000000e+00 -9.528200e-05 9.528200e-05 2.674074e+00
7.850000e-01 1.000000e+00 -9.418875e-05 9.418875e-05 2.674175e+00
7.860000e-01 1.000000e+00 -9.309801e-05 9.309801e-05 2.674276e+00
7.870000e-01 1.000000e+00 -9.200977e-05 9.200977e-05 2.674377e+00
7.880000e-01 1.000000e+00 -9.092401e-05 9.092401e-05 2.674478e+00
7.890000e-01 1.000000e+00 -8.984074e-05 8.984074e-05 2.674579e+00
7.900000e-01 1.000000e+00 -8.875996e-05 8.875996e-05 2.674680e+00
7.910000e-01 1.000000e+00 -8.768165e-05 8.768165e-05 2.674782e+00
7.920000e-01 1.000000e+00 -8.660582e-05 8.660582e-05 2.674884e+00
7.930000e-01 1.000000e+00 -8.553246e-05 8.553246e-05 2.674985e+00
7.940000e-01 1.000000e+00 -8.446156e-05 8.446156e-05 2.675087e+00
7.950000e-01 1.000000e+00 -8.339312e-05 8.339312e-05 2.675189e+00
7.960000e-01 1.000000e+00 -8.232714e-05 8.232714e-05 2.675291e+00
7.970000e-01 1.000000e+00 -8.126361e-05 8.126361e-05 2.675393e+00
7.980000e-01 1.000000e+00 -8.020252e-05 8.020252e-05 2.675496e+00
7.990000e-01 1.000000e+00 -7.914388e-05 7.914388e-05 2.675598e+00
8.000000e-01 1.000000e+00 -7.808767e-05 7.808767e-05 2.675701e+00
8.010000e-01 1.000000e+00 -7.703389e-05 7.703389e-05 2.675803e+00
8.020000e-01 1.000000e+00 -7.598255e-05 7.598255e-05 2.675906e+00
8.030000e-01 1.000000e+00 -7.493362e-05 7.493362e-05 2.676009e+00
8.040000e-01 1.000000e+00 -7.388712e-05 7.388712e-05 2.676112e+00
8.050000e-01 1.000000e+00 -7.284302e-05 7.284302e-05 2.676215e+00
8.060000e-01 1.000000e+00 -7.180134e-05 7.180134e-05 2.676319e+00
8.070000e-01 1.000000e+00 -7.076206e-05 7.076206e-05 2.676422e+00
8.080000e-01 1.000000e+00 -6.972518e-05 6.972518e-05 2.676526e+00
8.090000e-01 1.000000e+00 -6.869070e-05 6.869070e-05 2.676629e+00
8.100000e-01 1.000000e+00 -6.765861e-05 6.765861e-05 2.676733e+00
8.110000e-01 1.000000e+00 -6.662890e-05 6.662890e-05 2.676837e+00
8.120000e-01 1.000000e+00 -6.560158e-05 6.560158e-05 2.676941e+00
8.130000e-01 1.000000e+00 -6.457663e-05 6.457663e-05 2.677045e+00
8.140000e-01 1.000000e+00 -6.355406e-05 6.355406e-05 2.677149e+00
8.150000e-01 1.000000e+00 -6.253385e-05 6.253385e-05 2.677254e+00
8.160000e-01 1.000000e+00 -6.151601e-05 6.151601e-05 2.677358e+00
8.170000e-01 1.000000e+00 -6.050053e-05 6.050053e-05 2.677463e+00
8.180000e-01 1.000000e+00 -5.948740e-05 5.948740e-05 2.677568e+00
8.190000e-01 1.000000e+00 -5.847662e-05 5.847662e-05 2.677672e+00
8.200000e-01 1.000000e+00 -5.746818e-05 5.746818e-05 2.677777e+00
8.210000e-01 1.000000e+00 -5.646209e-05 5.646209e-05 2.677882e+00
8.220000e-01 1.000000e+00 -5.545833e-05 5.545833e-05 2.677988e+00
8.230000e-01 1.000000e+00 -5.445691e-05 5.445691e-05 2.678093e+00
8.240000e-01 1.000000e+00 -5.345781e-05 5.345781e-05 2.678198e+00
8.250000e-01 1.000000e+00 -5.246104e-05 5.246104e-05 2.678304e+00
8.260000e-01 1.000000e+00 -5.146658e-05 5.146658e-05 2.678410e+00
8.270000e-01 1.000000e+00 -5.047444e-05 5.047444e-05 2.678516e+00
8.280000e-01 1.000000e+00 -4.948460e-05 4.948460e-05 2.678621e+00
8.290000e-01 1.000000e+00 -4.849707e-05 4.849707e-05 2.678728e+00
8.300000e-01 1.000000e+00 -4.751184e-05 4.751184e-05 2.678834e+00
8.310000e-01 1.000000e+00 -4.652891e-05 4.652891e-05 2.678940e+00
8.320000e-01 1.000000e+00 -4.554826e-05 4.554826e-05 2.679046e+00
8.330000e-01 1.000000e+00 -4.456991e-05 4.456991e-05 2.679153e+00
8.340000e-01 1.000000e+00 -4.359383e-05 4.359383e-05 2.679260e+00
8.350000e-01 1.000000e+00 -4.262004e-05 4.262004e-05 2.679366e+00
8.360000e-01 1.000000e+00 -4.164851e-05 4.164851e-05 2.679473e+00
8.370000e-01 1.000000e+00 -4.067926e-05 4.067926e-05 2.679580e+00
8.380000e-01 1.000000e+00 -3.971227e-05 3.971227e-05 2.679687e+00
8.390000e-01 1.000000e+00 -3.874754e-05 3.874754e-05 2.679794e+00
8.400000e-01 1.000000e+00 -3.778507e-05 3.778507e-05 2.679902e+00
8.410000e-01 1.000000e+00 -3.682484e-05 3.682484e-05 2.680009e+00
8.420000e-01 1.000000e+00 -3.586687e-05 3.586687e-05 2.680117e+00
8.430000e-01 1.000000e+00 -3.491113e-05 3.491113e-05 2.680225e+00
8.440000e-01 1.000000e+00 -3.395763e-05 3.395763e-05 2.680332e+00
8.450000e-01 1.000000e+00 -3.300637e-05 3.300637e-05 2.680440e+00
8.460000e-01 1.000000e+00 -3.205734e-05 3.205734e-05 2.680548e+00
8.470000e-01 1.000000e+00 -3.111053e-05 3.111053e-05 2.680656e+00
8.480000e-01 1.000000e+00 -3.016594e-05 3.016594e-05 2.680765e+00
8.490000e-01 1.000000e+00 -2.922356e-05 2.922357e-05 2.680873e+00
8.500000e-01 1.000000e+00 -2.828340e-05 2.828340e-05 2.680982e+00
8.510000e-01 1.000000e+00 -2.734545e-05 2.734545e-05 2.681090e+00
8.520000e-01 1.000000e+00 -2.640970e-05 2.640970e-05 2.681199e+00
8.530000e-01 1.000000e+00 -2.547615e-05 2.547615e-05 2.681308e+00
8.540000e-01 1.000000e+00 -2.454479e-05 2.454479e-05 2.681417e+00
8.550000e-01 1.000000e+00 -2.361562e-05 2.361562e-05 2.681526e+00
8.560000e-01 1.000000e+00 -2.268864e-05 2.268864e-05 2.681635e+00
8.570000e-01 1.000000e+00 -2.176384e-05 2.176384e-05 2.681744e+00
8.580000e-01 1.000000e+00 -2.084121e-05 2.084121e-05 2.681854e+00
8.590000e-01 1.000000e+00 -1.992076e-05 1.992076e-05 2.681963e+00
8.600000e-01 1.000000e+00 -1.900248e-05 1.900248e-05 2.682073e+00
8.610000e-01 1.000000e+00 -1.808636e-05 1.808636e-05 2.682182e+00
8.620000e-01 1.000000e+00 -1.717240e-05 1.717240e-05 2.682292e+00
8.630000e-01 1.000000e+00 -1.626060e-05 1.626060e-05 2.682402e+00
8.640000e-01 1.000000e+00 -1.535095e-05 1.535095e-05 2.682512e+00
8.650000e-01 1.000000e+00 -1.444345e-05 1.444345e-05 2.682623e+00
8.660000e-01 1.000000e+00 -1.353809e-05 1.353809e-05 2.682733e+00
8.670000e-01 1.000000e+00 -1.263487e-05 1.263487e-05 2.682843e+00
8.680000e-01 1.000000e+00 -1.173378e-05 1.173378e-05 2.682954e+00
8.690000e-01 1.000000e+00 -1.083482e-05 1.083482e-05 2.683064e+00
8.700000e-01 1.000000e+00 -9.937996e-06 9.937997e-06 2.683175e+00
8.710000e-01 1.000000e+00 -9.043291e-06 9.043291e-06 2.683286e+00
8.720000e-01 1.000000e+00 -8.150703e-06 8.150703e-06 2.683397e+00
8.730000e-01 1.000000e+00 -7.260229e-06 7.260230e-06 2.683508e+00
8.740000e-01 1.000000e+00 -6.371866e-06 6.371866e-06 2.683619e+00
8.750000e-01 1.000000e+00 -5.485609e-06 5.485609e-06 2.683731e+00
8.760000e-01 1.000000e+00 -4.601453e-06 4.601453e-06 2.683842e+00
8.770000e-01 1.000000e+00 -3.719396e-06 3.719396e-06 2.683954e+00
8.780000e-01 1.000000e+00 -2.839432e-06 2.839432e-06 2.684065e+00
8.790000e-01 1.000000e+00 -1.961557e-06 1.961557e-06 2.684177e+00
8.800000e-01 1.000000e+00 -1.085769e-06 1.085769e-06 2.684289e+00
8.810000e-01 1.000000e+00 -2.120620e-07 2.120620e-07 2.684401e+00
8.820000e-01 1.000000e+00 6.595672e-07 -6.595672e-07 2.684513e+00
8.830000e-01 1.000000e+00 1.529123e-06 -1.529123e-06 2.684625e+00
8.840000e-01 1.000000e+00 2.396609e-06 -2.396609e-06 2.684737e+00
8.850000e-01 1.000000e+00 3.262029e-06 -3.262029e-06 2.684850e+00
8.860000e-01 1.000000e+00 4.125388e-06 -4.125388e-06 2.684962e+00
8.870000e-01 1.000000e+00 4.986689e-06 -4.986689e-06 2.685075e+00
8.880000e-01 1.000000e+00 5.845936e-06 -5.845936e-06 2.685188e+00
8.890000e-01 1.000000e+00 6.703133e-06 -6.703133e-06 2.685300e+00
8.900000e-01 1.000000e+00 7.558284e-06 -7.558284e-06 2.685413e+00
8.910000e-01 1.000000e+00 8.411393e-06 -8.411393e-06 2.685526e+00
8.920000e-01 1.000000e+00 9.262464e-06 -9.262464e-06 2.685640e+00
8.930000e-01 1.000000e+00 1.011150e-05 -1.011150e-05 2.685753e+00
8.940000e-01 1.000000e+00 1.095851e-05 -1.095851e-05 2.685866e+00
8.950000e-01 1.000000e+00 1.180349e-05 -1.180349e-05 2.685980e+00
8.960000e-01 1.000000e+00 1.264644e-05 -1.264644e-05 2.686093e+00
8.970000e-01 1.000000e+00 1.348738e-05 -1.348738e-05 2.686207e+00
8.980000e-01 1.000000e+00 1.432630e-05 -1.432630e-05 2.686321e+00
8.990000e-01 1.000000e+00 1.516321e-05 -1.516321e-05 2.686435e+00
9.000000e-01 1.000000e+00 1.599812e-05 -1.599812e-05 2.686549e+00
9.010000e-01 1.000000e+00 1.683102e-05 -1.683102e-05 2.686663e+00
9.020000e-01 1.000000e+00 1.766192e-05 -1.766192e-05 2.686777e+00
9.030000e-01 1.000000e+00 1.849082e-05 -1.849082e-05 2.686891e+00
9.040000e-01 1.000000e+00 1.931773e-05 -1.931773e-05 2.687006e+00
9.050000e-01 1.000000e+00 2.014265e-05 -2.014265e-05 2.687120e+00
9.060000e-01 1.000000e+00 2.096559e-05 -2.096559e-05 2.687235e+00
9.070000e-01 1.000000e+00 2.178654e-05 -2.178654e-05 2.687350e+00
9.080000e-01 1.000000e+00 2.260552e-05 -2.260552e-05 2.687465e+00
9.090000e-01 1.000000e+00 2.342252e-05 -2.342252e-05 2.687580e+00
9.100000e-01 1.000000e+00 2.423756e-05 -2.423756e-05 2.687695e+00
9.110000e-01 1.000000e+00 2.505062e-05 -2.505062e-05 2.687810e+00
9.120000e-01 1.000000e+00 2.586172e-05 -2.586172e-05 2.687925e+00
9.130000e-01 1.000000e+00 2.667086e-05 -2.667086e-05 2.688041e+00
9.140000e-01 1.000000e+00 2.747805e-05 -2.747805e-05 2.688156e+00
9.150000e-01 1.000000e+00 2.828328e-05 -2.828328e-05 2.688272e+00
9.160000e-01 1.000000e+00 2.908656e-05 -2.908656e-05 2.688387e+00
9.170000e-01 1.000000e+00 2.988790e-05 -2.988790e-05 2.688503e+00
9.180000e-01 1.000000e+00 3.068730e-05 -3.068730e-05 2.688619e+00
9.190000e-01 1.000000e+00 3.148475e-05 -3.148475e-05 2.688735e+00
9.200000e-01 1.000000e+00 3.228027e-05 -3.228027e-05 2.688851e+00
9.210000e-01 1.000000e+00 3.307386e-05 -3.307386e-05 2.688967e+00
9.220000e-01 1.000000e+00 3.386553e-05 -3.386553e-05 2.689084e+00
9.230000e-01 1.000000e+00 3.465526e-05 -3.465526e-05 2.689200e+00
9.240000e-01 1.000000e+00 3.544308e-05 -3.544308e-05 2.689317e+00
9.250000e-01 1.000000e+00 3.622897e-05 -3.622897e-05 2.689433e+00
9.260000e-01 1.000000e+00 3.701295e-05 -3.701295e-05 2.689550e+00
9.270000e-01 1.000000e+00 3.779502e-05 -3.779502e-05 2.689667e+00
9.280000e-01 1.000000e+00 3.857519e-05 -3.857519e-05 2.689784e+00
9.290000e-01 1.000000e+00 3.935344e-05 -3.935345e-05 2.689901e+00
9.300000e-01 1.000000e+00 4.012980e-05 -4.012980e-05 2.690018e+00
9.310000e-01 1.000000e+00 4.090426e-05 -4.090426e-05 2.690135e+00
9.320000e-01 1.000000e+00 4.167682e-05 -4.167682e-05 2.690253e+00
9.330000e-01 1.000000e+00 4.244749e-05 -4.244749e-05 2.690370e+00
9.340000e-01 1.000000e+00 4.321628e-05 -4.321628e-05 2.690488e+00
9.350000e-01 1.000000e+00 4.398318e-05 -4.398318e-05 2.690605e+00
9.360000e-01 1.000000e+00 4.474819e-05 -4.474819e-05 2.690723e+00
9.370000e-01 1.000000e+00 4.551133e-05 -4.551133e-05 2.690841e+00
9.380000e-01 1.000000e+00 4.627259e-05 -4.627259e-05 2.690959e+00
9.390000e-01 1.000000e+00 4.703198e-05 -4.703198e-05 2.691077e+00
9.400000e-01 1.000000e+00 4.778950e-05 -4.778950e-05 2.691195e+00
9.410000e-01 1.000000e+00 4.854515e-05 -4.854515e-05 2.691313e+00
9.420000e-01 1.000000e+00 4.929895e-05 -4.929895e-05 2.691431e+00
9.430000e-01 1.000000e+00 5.005088e-05 -5.005088e-05 2.691550e+00
9.440000e-01 1.000000e+00 5.080095e-05 -5.080095e-05 2.691668e+00
9.450000e-01 1.000000e+00 5.154917e-05 -5.154917e-05 2.691787e+00
9.460000e-01 1.000000e+00 5.229554e-05 -5.229554e-05 2.691906e+00
9.470000e-01 1.000000e+00 5.304006e-05 -5.304006e-05 2.692025e+00
9.480000e-01 1.000000e+00 5.378274e-05 -5.378274e-05 2.692144e+00
9.490000e-01 1.000000e+00 5.452358e-05 -5.452358e-05 2.692263e+00
9.500000e-01 1.000000e+00 5.526257e-05 -5.526257e-05 2.692382e+00
9.510000e-01 1.000000e+00 5.599973e-05 -5.599973e-05 2.692501e+00
9.520000e-01 1.000000e+00 5.673506e-05 -5.673506e-05 2.692620e+00
9.530000e-01 1.000000e+00 5.746856e-05 -5.746856e-05 2.692740e+00
9.540000e-01 1.000000e+00 5.820023e-05 -5.820023e-05 2.692859e+00
9.550000e-01 1.000000e+00 5.893007e-05 -5.893007e-05 2.692979e+00
9.560000e-01 1.000000e+00 5.965810e-05 -5.965810e-05 2.693099e+00
9.570000e-01 1.000000e+00 6.038430e-05 -6.038430e-05 2.693218e+00
9.580000e-01 1.000000e+00 6.110869e-05 -6.110869e-05 2.693338e+00
9.590000e-01 1.000000e+00 6.183127e-05 -6.183127e-05 2.693458e+00
9.600000e-01 1.000000e+00 6.255204e-05 -6.255204e-05 2.693578e+00
9.610000e-01 1.000000e+00 6.327100e-05 -6.327100e-05 2.693699e+00
9.620000e-01 1.000000e+00 6.398815e-05 -6.398815e-05 2.693819e+00
9.630000e-01 1.000000e+00 6.470350e-05 -6.470350e-05 2.693939e+00
9.640000e-01 1.000000e+00 6.541706e-05 -6.541706e-05 2.694060e+00
9.650000e-01 1.000000e+00 6.612881e-05 -6.612881e-05 2.694180e+00
9.660000e-01 1.000000e+00 6.683878e-05 -6.683878e-05 2.694301e+00
9.670000e-01 1.000000e+00 6.754695e-05 -6.754695e-05 2.694422e+00
9.680000e-01 1.000000e+00 6.825333e-05 -6.825333e-05 2.694543e+00
9.690000e-01 1.000000e+00 6.895793e-05 -6.895793e-05 2.694663e+00
9.700000e-01 1.000000e+00 6.966074e-05 -6.966074e-05 2.694785e+00
9.710000e-01 1.000000e+00 7.036178e-05 -7.036178e-05 2.694906e+00
9.720000e-01 1.000000e+00 7.106103e-05 -7.106103e-05 2.695027e+00
9.730000e-01 1.000000e+00 7.175851e-05 -7.175851e-05 2.695148e+00
9.740000e-01 1.000000e+00 7.245421e-05 -7.245421e-05 2.695270e+00
9.750000e-01 1.000000e+00 7.314815e-05 -7.314815e-05 2.695391e+00
9.760000e-01 1.000000e+00 7.384031e-05 -7.384031e-05 2.695513e+00
9.770000e-01 1.000000e+00 7.453072e-05 -7.453072e-05 2.695635e+00
9.780000e-01 1.000000e+00 7.521935e-05 -7.521935e-05 2.695756e+00
9.790000e-01 1.000000e+00 7.590623e-05 -7.590623e-05 2.695878e+00
9.800000e-01 1.000000e+00 7.659135e-05 -7.659135e-05 2.696000e+00
9.810000e-01 1.000000e+00 7.727471e-05 -7.727471e-05 2.696122e+00
9.820000e-01 1.000000e+00 7.795632e-05 -7.795632e-05 2.696244e+00
9.830000e-01 1.000000e+00 7.863617e-05 -7.863617e-05 2.696367e+00
9.840000e-01 1.000000e+00 7.931428e-05 -7.931428e-05 2.696489e+00
9.850000e-01 1.000000e+00 7.999064e-05 -7.999064e-05 2.696612e+00
9.860000e-01 1.000000e+00 8.066526e-05 -8.066526e-05 2.696734e+00
9.870000e-01 1.000000e+00 8.133813e-05 -8.133813e-05 2.696857e+00
9.880000e-01 1.000000e+00 8.200926e-05 -8.200926e-05 2.696979e+00
9.890000e-01 1.000000e+00 8.267866e-05 -8.267866e-05 2.697102e+00
9.900000e-01 1.000000e+00 8.334632e-05 -8.334632e-05 2.697225e+00
9.910000e-01 1.000000e+00 8.401225e-05 -8.401225e-05 2.697348e+00
9.920000e-01 1.000000e+00 8.467644e-05 -8.467644e-05 2.697471e+00
9.930000e-01 1.000000e+00 8.533891e-05 -8.533891e-05 2.697594e+00
9.940000e-01 1.000000e+00 8.599965e-05 -8.599965e-05 2.697718e+00
9.950000e-01 1.000000e+00 8.665867e-05 -8.665867e-05 2.697841e+00
9.960000e-01 1.000000e+00 8.731596e-05 -8.731596e-05 2.697964e+00
9.970000e-01 1.000000e+00 8.797153e-05 -8.797153e-05 2.698088e+00
9.980000e-01 1.000000e+00 8.862539e-05 -8.862539e-05 2.698212e+00
9.990000e-01 1.000000e+00 8.927752e-05 -8.927752e-05 2.698335e+00
1.000000e+00 1.000000e+00 8.992795e-05 -8.992795e-05 2.698459e+00
1.001000e+00 1.000000e+00 9.057666e-05 -9.057666e-05 2.698583e+00
1.002000e+00 1.000000e+00 9.122366e-05 -9.122366e-05 2.698707e+00
1.003000e+00 1.000000e+00 9.186895e-05 -9.186895e-05 2.698831e+00
1.004000e+00 1.000000e+00 9.251253e-05 -9.251253e-05 2.698955e+00
1.005000e+00 1.000000e+00 9.315441e-05 -9.315441e-05 2.699079e+00
1.006000e+00 1.000000e+00 9.379459e-05 -9.379459e-05 2.699204e+00
1.007000e+00 1.000000e+00 9.443307e-05 -9.443307e-05 2.699328e+00
1.008000e+00 1.000000e+00 9.506984e-05 -9.506984e-05 2.699453e+00
1.009000e+00 1.000000e+00 9.570492e-05 -9.570492e-05 2.699577e+00
1.010000e+00 1.000000e+00 9.633831e-05 -9.633831e-05 2.699702e+00
1.011000e+00 1.000000e+00 9.697000e-05 -9.697000e-05 2.699827e+00
1.012000e+00 1.000000e+00 9.760000e-05 -9.760000e-05 2.699952e+00
1.013000e+00 1.000000e+00 9.822831e-05 -9.822831e-05 2.700076e+00
1.014000e+00 1.000000e+00 9.885493e-05 -9.885493e-05 2.700202e+00
1.015000e+00 1.000000e+00 9.947986e-05 -9.947986e-05 2.700327e+00
1.016000e+00 1.000000e+00 1.001031e-04 -1.001031e-04 2.700452e+00
1.017000e+00 1.000000e+00 1.007247e-04 -1.007247e-04 2.700577e+00
1.018000e+00 1.000000e+00 1.013446e-04 -1.013446e-04 2.700702e+00
1.019000e+00 1.000000e+00 1.019628e-04 -1.019628e-04 2.700828e+00
1.020000e+00 1.000000e+00 1.025793e-04 -1.025793e-04 2.700953e+00
1.021000e+00 1.000000e+00 1.031941e-04 -1.031941e-04 2.701079e+00
1.022000e+00 1.000000e+00 1.038073e-04 -1.038073e-04 2.701205e+00
1.023000e+00 1.000000e+00 1.044188e-04 -1.044188e-04 2.701331e+00
1.024000e+00 1.000000e+00 1.050287e-04 -1.050287e-04 2.701457e+00
1.025000e+00 1.000000e+00 1.056368e-04 -1.056368e-04 2.701582e+00
1.026000e+00 1.000000e+00 1.062433e-04 -1.062433e-04 2.701709e+00
1.027000e+00 1.000000e+00 1.068481e-04 -1.068481e-04 2.701835e+00
1.028000e+00 1.000000e+00 1.074513e-04 -1.074513e-04 2.701961e+00
1.029000e+00 1.000000e+00 1.080528e-04 -1.080528e-04 2.702087e+00
1.030000e+00 1.000000e+00 1.086526e-04 -1.086526e-04 2.702214e+00
1.031000e+00 1.000000e+00 1.092508e-04 -1.092508e-04 2.702340e+00
1.032000e+00 1.000000e+00 1.098473e-04 -1.098473e-04 2.702467e+00
1.033000e+00 1.000000e+00 1.104421e-04 -1.104421e-04 2.702593e+00
1.034000e+00 1.000000e+00 1.110353e-04 -1.110353e-04 2.702720e+00
1.035000e+00 1.000000e+00 1.116269e-04 -1.116269e-04 2.702847e+00
1.036000e+00 1.000000e+00 1.122167e-04 -1.122167e-04 2.702974e+00
1.037000e+00 1.000000e+00 1.128050e-04 -1.128050e-04 2.703101e+00
1.038000e+00 1.000000e+00 1.133915e-04 -1.133915e-04 2.703228e+00
1.039000e+00 1.000000e+00 1.139765e-04 -1.139765e-04 2.703355e+00
1.040000e+00 1.000000e+00 1.145597e-04 -1.145597e-04 2.703482e+00
1.041000e+00 1.000000e+00 1.151414e-04 -1.151414e-04 2.703609e+00
1.042000e+00 1.000000e+00 1.157214e-04 -1.157214e-04 2.703737e+00
1.043000e+00 1.000000e+00 1.162997e-04 -1.162997e-04 2.703864e+00
1.044000e+00 1.000000e+00 1.168764e-04 -1.168764e-04 2.703992e+00
1.045000e+00 1.000000e+00 1.174514e-04 -1.174514e-04 2.704119e+00
1.046000e+00 1.000000e+00 1.180248e-04 -1.180248e-04 2.704247e+00
1.047000e+00 1.000000e+00 1.185966e-04 -1.185966e-04 2.704375e+00
1.048000e+00 1.000000e+00 1.191667e-04 -1.191667e-04 2.704503e+00
1.049000e+00 1.000000e+00 1.197352e-04 -1.197352e-04 2.704631e+00
1.050000e+00 1.000000e+00 1.203020e-04 -1.203020e-04 2.704759e+00
1.051000e+00 1.000000e+00 1.208672e-04 -1.208672e-04 2.704887e+00
1.052000e+00 1.000000e+00 1.214308e-04 -1.214308e-04 2.705015e+00
1.053000e+00 1.000000e+00 1.219927e-04 -1.219927e-04 2.705143e+00
1.054000e+00 1.000000e+00 1.225530e-04 -1.225530e-04 2.705271e+00
1.055000e+00 1.000000e+00 1.231117e-04 -1.231117e-04 2.705400e+00
1.056000e+00 1.000000e+00 1.236687e-04 -1.236687e-04 2.705528e+00
1.057000e+00 1.000000e+00 1.242241e-04 -1.242241e-04 2.705657e+00
1.058000e+00 1.000000e+00 1.247779e-04 -1.247779e-04 2.705786e+00
1.059000e+00 1.000000e+00 1.253300e-04 -1.253300e-04 2.705914e+00
1.060000e+00 1.000000e+00 1.258805e-04 -1.258805e-04 2.706043e+00
1.061000e+00 1.000000e+00 1.264294e-04 -1.264294e-04 2.706172e+00
1.062000e+00 1.000000e+00 1.269766e-04 -1.269766e-04 2.706301e+00
1.063000e+00 1.000000e+00 1.275223e-04 -1.275223e-04 2.706430e+00
1.064000e+00 1.000000e+00 1.280663e-04 -1.280663e-04 2.706559e+00
1.065000e+00 1.000000e+00 1.286086e-04 -1.286086e-04 2.706688e+00
1.066000e+00 1.000000e+00 1.291494e-04 -1.291494e-04 2.706818e+00
1.067000e+00 1.000000e+00 1.296885e-04 -1.296885e-04 2.706947e+00
1.068000e+00 1.000000e+00 1.302260e-04 -1.302260e-04 2.707076e+00
1.069000e+00 1.000000e+00 1.307619e-04 -1.307619e-04 2.707206e+00
1.070000e+00 1.000000e+00 1.312962e-04 -1.312962e-04 2.707336e+00
1.071000e+00 1.000000e+00 1.318288e-04 -1.318288e-04 2.707465e+00
1.072000e+00 1.000000e+00 1.323598e-04 -1.323598e-04 2.707595e+00
1.073000e+00 1.000000e+00 1.328892e-04 -1.328892e-04 2.707725e+00
1.074000e+00 1.000000e+00 1.334170e-04 -1.334170e-04 2.707855e+00
1.075000e+00 1.000000e+00 1.339432e-04 -1.339432e-04 2.707985e+00
1.076000e+00 1.000000e+00 1.344677e-04 -1.344677e-04 2.708115e+00
1.077000e+00 1.000000e+00 1.349906e-04 -1.349906e-04 2.708245e+00
1.078000e+00 1.000000e+00 1.355119e-04 -1.355119e-04 2.708375e+00
1.079000e+00 1.000000e+00 1.360316e-04 -1.360316e-04 2.708505e+00
1.080000e+00 1.000000e+00 1.365497e-04 -1.365497e-04 2.708636e+00
1.081000e+00 1.000000e+00 1.370662e-04 -1.370662e-04 2.708766e+00
1.082000e+00 1.000000e+00 1.375810e-04 -1.375810e-04 2.708896e+00
1.083000e+00 1.000000e+00 1.380942e-04 -1.380942e-04 2.709027e+00
1.084000e+00 1.000000e+00 1.386059e-04 -1.386059e-04 2.709158e+00
1.085000e+00 1.000000e+00 1.391159e-04 -1.391159e-04 2.709288e+00
1.086000e+00 1.000000e+00 1.396243e-04 -1.396243e-04 2.709419e+00
1.087000e+00 1.000000e+00 1.401310e-04 -1.401310e-04 2.709550e+00
1.088000e+00 1.000000e+00 1.406362e-04 -1.406362e-04 2.709681e+00
1.089000e+00 1.000000e+00 1.411397e-04 -1.411397e-04 2.709812e+00
1.090000e+00 1.000000e+00 1.416417e-04 -1.416417e-04 2.709943e+00
1.091000e+00 1.000000e+00 1.421420e-04 -1.421420e-04 2.710074e+00
1.092000e+00 1.000000e+00 1.426407e-04 -1.426407e-04 2.710205e+00
1.093000e+00 1.000000e+00 1.431378e-04 -1.431378e-04 2.710337e+00
1.094000e+00 1.000000e+00 1.436333e-04 -1.436333e-04 2.710468e+00
1.095000e+00 1.000000e+00 1.441272e-04 -1.441272e-04 2.710599e+00
1.096000e+00 1.000000e+00 1.446195e-04 -1.446195e-04 2.710731e+00
1.097000e+00 1.000000e+00 1.451101e-04 -1.451101e-04 2.710862e+00
1.098000e+00 1.000000e+00 1.455992e-04 -1.455992e-04 2.710994e+00
1.099000e+00 1.000000e+00 1.460866e-04 -1.460866e-04 2.711126e+00
1.100000e+00 1.000000e+00 1.465724e-04 -1.465724e-04 2.711258e+00
1.101000e+00 1.000000e+00 1.470567e-04 -1.470567e-04 2.711389e+00
1.102000e+00 1.000000e+00 1.475393e-04 -1.475393e-04 2.711521e+00
1.103000e+00 1.000000e+00 1.480203e-04 -1.480203e-04 2.711653e+00
1.104000e+00 1.000000e+00 1.484997e-04 -1.484997e-04 2.711785e+00
1.105000e+00 1.000000e+00 1.489774e-04 -1.489774e-04 2.711918e+00
1.106000e+00 1.000000e+00 1.494536e-04 -1.494536e-04 2.712050e+00
1.107000e+00 1.000000e+00 1.499282e-04 -1.499282e-04 2.712182e+00
1.108000e+00 1.000000e+00 1.504011e-04 -1.504011e-04 2.712314e+00
1.109000e+00 1.000000e+00 1.508725e-04 -1.508725e-04 2.712447e+00
1.110000e+00 1.000000e+00 1.513422e-04 -1.513422e-04 2.712579e+00
1.111000e+00 1.000000e+00 1.518103e-04 -1.518103e-04 2.712712e+00
1.112000e+00 1.000000e+00 1.522768e-04 -1.522768e-04 2.712845e+00
1.113000e+00 1.000000e+00 1.527417e-04 -1.527417e-04 2.712977e+00
1.114000e+00 1.000000e+00 1.532050e-04 -1.532050e-04 2.713110e+00
1.115000e+00 1.000000e+00 1.536667e-04 -1.536667e-04 2.713243e+00
1.116000e+00 1.000000e+00 1.541268e-04 -1.541268e-04 2.713376e+00
1.117000e+00 1.000000e+00 1.545852e-04 -1.545852e-04 2.713509e+00
1.118000e+00 1.000000e+00 1.550421e-04 -1.550421e-04 2.713642e+00
1.119000e+00 1.000000e+00 1.554973e-04 -1.554973e-04 2.713775e+00
1.120000e+00 1.000000e+00 1.559509e-04 -1.559509e-04 2.713908e+00
1.121000e+00 1.000000e+00 1.564029e-04 -1.564029e-04 2.714041e+00
1.122000e+00 1.000000e+00 1.568533e-04 -1.568533e-04 2.714174e+00
1.123000e+00 1.000000e+00 1.573021e-04 -1.573021e-04 2.714308e+00
1.124000e+00 1.000000e+00 1.577493e-04 -1.577493e-04 2.714441e+00
1.125000e+00 1.000000e+00 1.581949e-04 -1.581949e-04 2.714575e+00
1.126000e+00 1.000000e+00 1.586388e-04 -1.586388e-04 2.714708e+00
1.127000e+00 1.000000e+00 1.590812e-04 -1.590812e-04 2.714842e+00
1.128000e+00 1.000000e+00 1.595219e-04 -1.595219e-04 2.714976e+00
1.129000e+00 1.000000e+00 1.599610e-04 -1.599610e-04 2.715109e+00
1.130000e+00 1.000000e+00 1.603985e-04 -1.603985e-04 2.715243e+00
1.131000e+00 1.000000e+00 1.608344e-04 -1.608344e-04 2.715377e+00
1.132000e+00 1.000000e+00 1.612686e-04 -1.612686e-04 2.715511e+00
1.133000e+00 1.000000e+00 1.617013e-04 -1.617013e-04 2.715645e+00
1.134000e+00 1.000000e+00 1.621323e-04 -1.621323e-04 2.715779e+00
1.135000e+00 1.000000e+00 1.625618e-04 -1.625618e-04 2.715913e+00
1.136000e+00 1.000000e+00 1.629896e-04 -1.629896e-04 2.716048e+00
1.137000e+00 1.000000e+00 1.634157e-04 -1.634157e-04 2.716182e+00
1.138000e+00 1.000000e+00 1.638403e-04 -1.638403e-04 2.716316e+00
1.139000e+00 1.000000e+00 1.642633e-04 -1.642633e-04 2.716451e+00
1.140000e+00 1.000000e+00 1.646846e-04 -1.646846e-04 2.716585e+00
1.141000e+00 1.000000e+00 1.651043e-04 -1.651043e-04 2.716720e+00
1.142000e+00 1.000000e+00 1.655224e-04 -1.655224e-04 2.716854e+00
1.143000e+00 1.000000e+00 1.659389e-04 -1.659389e-04 2.716989e+00
1.144000e+00 1.000000e+00 1.663537e-04 -1.663537e-04 2.717124e+00
1.145000e+00 1.000000e+00 1.667670e-04 -1.667670e-04 2.717258e+00
1.146000e+00 1.000000e+00 1.671786e-04 -1.671786e-04 2.717393e+00
1.147000e+00 1.000000e+00 1.675886e-04 -1.675886e-04 2.717528e+00
1.148000e+00 1.000000e+00 1.679969e-04 -1.679969e-04 2.717663e+00
1.149000e+00 1.000000e+00 1.684037e-04 -1.684037e-04 2.717798e+00
1.150000e+00 1.000000e+00 1.688088e-04 -1.688088e-04 2.717933e+00
1.151000e+00 1.000000e+00 1.692123e-04 -1.692123e-04 2.718068e+00
1.152000e+00 1.000000e+00 1.696141e-04 -1.696141e-04 2.718204e+00
1.153000e+00 1.000000e+00 1.700144e-04 -1.700144e-04 2.718339e+00
1.154000e+00 1.000000e+00 1.704130e-04 -1.704130e-04 2.718474e+00
1.155000e+00 1.000000e+00 1.708099e-04 -1.708099e-04 2.718610e+00
1.156000e+00 1.000000e+00 1.712053e-04 -1.712053e-04 2.718745e+00
1.157000e+00 1.000000e+00 1.715990e-04 -1.715990e-04 2.718881e+00
1.158000e+00 1.000000e+00 1.719911e-04 -1.719911e-04 2.719016e+00
1.159000e+00 1.000000e+00 1.723816e-04 -1.723816e-04 2.719152e+00
1.160000e+00 1.000000e+00 1.727704e-04 -1.727704e-04 2.719287e+00
1.161000e+00 1.000000e+00 1.731576e-04 -1.731576e-04 2.719423e+00
1.162000e+00 1.000000e+00 1.735431e-04 -1.735431e-04 2.719559e+00
1.163000e+00 1.000000e+00 1.739271e-04 -1.739271e-04 2.719695e+00
1.164000e+00 1.000000e+00 1.743094e-04 -1.743094e-04 2.719831e+00
1.165000e+00 1.000000e+00 1.746900e-04 -1.746900e-04 2.719967e+00
1.166000e+00 1.000000e+00 1.750690e-04 -1.750690e-04 2.720103e+00
1.167000e+00 1.000000e+00 1.754464e-04 -1.754464e-04 2.720239e+00
1.168000e+00 1.000000e+00 1.758221e-04 -1.758221e-04 2.720375e+00
1.169000e+00 1.000000e+00 1.761962e-04 -1.761962e-04 2.720511e+00
1.170000e+00 1.000000e+00 1.765687e-04 -1.765687e-04 2.720648e+00
1.171000e+00 1.000000e+00 1.769395e-04 -1.769395e-04 2.720784e+00
1.172000e+00 1.000000e+00 1.773087e-04 -1.773087e-04 2.720920e+00
1.173000e+00 1.000000e+00 1.776762e-04 -1.776762e-04 2.721057e+00
1.174000e+00 1.000000e+00 1.780421e-04 -1.780421e-04 2.721193e+00
1.175000e+00 1.000000e+00 1.784063e-04 -1.784063e-04 2.721330e+00
1.176000e+00 1.000000e+00 1.787689e-04 -1.787689e-04 2.721467e+00
1.177000e+00 1.000000e+00 1.791299e-04 -1.791299e-04 2.721603e+00
1.178000e+00 1.000000e+00 1.794892e-04 -1.794892e-04 2.721740e+00
1.179000e+00 1.000000e+00 1.798468e-04 -1.798468e-04 2.721877e+00
1.180000e+00 1.000000e+00 1.802028e-04 -1.802028e-04 2.722014e+00
1.181000e+00 1.000000e+00 1.805572e-04 -1.805572e-04 2.722151e+00
1.182000e+00 1.000000e+00 1.809099e-04 -1.809099e-04 2.722288e+00
1.183000e+00 1.000000e+00 1.812609e-04 -1.812609e-04 2.722425e+00
1.184000e+00 1.000000e+00 1.816103e-04 -1.816103e-04 2.722562e+00
1.185000e+00 1.000000e+00 1.819580e-04 -1.819580e-04 2.722699e+00
1.186000e+00 1.000000e+00 1.823041e-04 -1.823041e-04 2.722836e+00
1.187000e+00 1.000000e+00 1.826485e-04 -1.826485e-04 2.722973e+00
1.188000e+00 1.000000e+00 1.829913e-04 -1.829913e-04 2.723111e+00
1.189000e+00 1.000000e+00 1.833323e-04 -1.833323e-04 2.723248e+00
1.190000e+00 1.000000e+00 1.836718e-04 -1.836718e-04 2.723385e+00
1.191000e+00 1.000000e+00 1.840095e-04 -1.840095e-04 2.723523e+00
1.192000e+00 1.000000e+00 1.843456e-04 -1.843456e-04 2.723660e+00
1.193000e+00 1.000000e+00 1.846801e-04 -1.846801e-04 2.723798e+00
1.194000e+00 1.000000e+00 1.850129e-04 -1.850129e-04 2.723936e+00
1.195000e+00 1.000000e+00 1.853440e-04 -1.853440e-04 2.724073e+00
1.196000e+00 1.000000e+00 1.856734e-04 -1.856734e-04 2.724211e+00
1.197000e+00 1.000000e+00 1.860012e-04 -1.860012e-04 2.724349e+00
1.198000e+00 1.000000e+00 1.863272e-04 -1.863272e-04 2.724487e+00
1.199000e+00 1.000000e+00 1.866517e-04 -1.866517e-04 2.724625e+00
1.200000e+00 1.000000e+00 1.869744e-04 -1.869744e-04 2.724762e+00
1.201000e+00 1.000000e+00 1.872955e-04 -1.872955e-04 2.724900e+00
1.202000e+00 1.000000e+00 1.876149e-04 -1.876149e-04 2.725039e+00
1.203000e+00 1.000000e+00 1.879326e-04 -1.879326e-04 2.725177e+00
1.204000e+00 1.000000e+00 1.882486e-04 -1.882486e-04 2.725315e+00
1.205000e+00 1.000000e+00 1.885630e-04 -1.885630e-04 2.725453e+00
1.206000e+00 1.000000e+00 1.888757e-04 -1.888757e-04 2.725591e+00
1.207000e+00 1.000000e+00 1.891867e-04 -1.891867e-04 2.725730e+00
1.208000e+00 1.000000e+00 1.894960e-04 -1.894960e-04 2.725868e+00
1.209000e+00 1.000000e+00 1.898036e-04 -1.898036e-04 2.726006e+00
1.210000e+00 1.000000e+00 1.901095e-04 -1.901095e-04 2.726145e+00
1.211000e+00 1.000000e+00 1.904138e-04 -1.904138e-04 2.726283e+00
1.212000e+00 1.000000e+00 1.907163e-04 -1.907163e-04 2.726422e+00
1.213000e+00 1.000000e+00 1.910172e-04 -1.910172e-04 2.726561e+00
1.214000e+00 1.000000e+00 1.913164e-04 -1.913164e-04 2.726699e+00
1.215000e+00 1.000000e+00 1.916138e-04 -1.916138e-04 2.726838e+00
1.216000e+00 1.000000e+00 1.919096e-04 -1.919096e-04 2.726977e+00
1.217000e+00 1.000000e+00 1.922037e-04 -1.922037e-04 2.727115e+00
1.218000e+00 1.000000e+00 1.924961e-04 -1.924961e-04 2.727254e+00
1.219000e+00 1.000000e+00 1.927868e-04 -1.927868e-04 2.727393e+00
1.220000e+00 1.000000e+00 1.930758e-04 -1.930758e-04 2.727532e+00
1.221000e+00 1.000000e+00 1.933630e-04 -1.933630e-04 2.727671e+00
1.222000e+00 1.000000e+00 1.936486e-04 -1.936486e-04 2.727810e+00
1.223000e+00 1.000000e+00 1.939325e-04 -1.939325e-04 2.727949e+00
1.224000e+00 1.000000e+00 1.942147e-04 -1.942147e-04 2.728089e+00
1.225000e+00 1.000000e+00 1.944951e-04 -1.944951e-04 2.728228e+00
1.226000e+00 1.000000e+00 1.947739e-04 -1.947739e-04 2.728367e+00
1.227000e+00 1.000000e+00 1.950509e-04 -1.950509e-04 2.728506e+00
1.228000e+00 1.000000e+00 1.953262e-04 -1.953262e-04 2.728646e+00
1.229000e+00 1.000000e+00 1.955999e-04 -1.955999e-04 2.728785e+00
1.230000e+00 1.000000e+00 1.958717e-04 -1.958717e-04 2.728924e+00
1.231000e+00 1.000000e+00 1.961419e-04 -1.961419e-04 2.729064e+00
1.232000e+00 1.000000e+00 1.964104e-04 -1.964104e-04 2.729204e+00
1.233000e+00 1.000000e+00 1.966771e-04 -1.966771e-04 2.729343e+00
1.234000e+00 1.000000e+00 1.969421e-04 -1.969421e-04 2.729483e+00
1.235000e+00 1.000000e+00 1.972054e-04 -1.972054e-04 2.729622e+00
1.236000e+00 1.000000e+00 1.974670e-04 -1.974670e-04 2.729762e+00
1.237000e+00 1.000000e+00 1.977268e-04 -1.977268e-04 2.729902e+00
1.238000e+00 1.000000e+00 1.979849e-04 -1.979849e-04 2.730042e+00
1.239000e+00 1.000000e+00 1.982413e-04 -1.982413e-04 2.730182e+00
1.240000e+00 1.000000e+00 1.984960e-04 -1.984960e-04 2.730322e+00
1.241000e+00 1.000000e+00 1.987489e-04 -1.987489e-04 2.730461e+00
1.242000e+00 1.000000e+00 1.990001e-04 -1.990001e-04 2.730601e+00
1.243000e+00 1.000000e+00 1.992495e-04 -1.992495e-04 2.730742e+00
1.244000e+00 1.000000e+00 1.994972e-04 -1.994972e-04 2.730882e+00
1.245000e+00 1.000000e+00 1.997432e-04 -1.997432e-04 2.731022e+00
1.246000e+00 1.000000e+00 1.999874e-04 -1.999874e-04 2.731162e+00
1.247000e+00 1.000000e+00 2.002299e-04 -2.002299e-04 2.731302e+00
1.248000e+00 1.000000e+00 2.004707e-04 -2.004707e-04 2.731442e+00
1.249000e+00 1.000000e+00 2.007097e-04 -2.007097e-04 2.731583e+00
1.250000e+00 1.000000e+00 2.009469e-04 -2.009469e-04 2.731723e+00
1.251000e+00 1.000000e+00 2.011824e-04 -2.011824e-04 2.731863e+00
1.252000e+00 1.000000e+00 2.014161e-04 -2.014161e-04 2.732004e+00
1.253000e+00 1.000000e+00 2.016481e-04 -2.016481e-04 2.732144e+00
1.254000e+00 1.000000e+00 2.018784e-04 -2.018784e-04 2.732285e+00
1.255000e+00 1.000000e+00 2.021069e-04 -2.021069e-04 2.732425e+00
1.256000e+00 1.000000e+00 2.023336e-04 -2.023336e-04 2.732566e+00
1.257000e+00 1.000000e+00 2.025586e-04 -2.025586e-04 2.732707e+00
1.258000e+00 1.000000e+00 2.027818e-04 -2.027818e-04 2.732847e+00
1.259000e+00 1.000000e+00 2.030032e-04 -2.030032e-04 2.732988e+00
1.260000e+00 1.000000e+00 2.032229e-04 -2.032229e-04 2.733129e+00
1.261000e+00 1.000000e+00 2.034408e-04 -2.034408e-04 2.733270e+00
1.262000e+00 1.000000e+00 2.036570e-04 -2.036570e-04 2.733411e+00
1.263000e+00 1.000000e+00 2.038713e-04 -2.038713e-04 2.733552e+00
1.264000e+00 1.000000e+00 2.040840e-04 -2.040840e-04 2.733693e+00
1.265000e+00 1.000000e+00 2.042948e-04 -2.042948e-04 2.733834e+00
1.266000e+00 1.000000e+00 2.045038e-04 -2.045038e-04 2.733975e+00
1.267000e+00 1.000000e+00 2.047111e-04 -2.047111e-04 2.734116e+00
1.268000e+00 1.000000e+00 2.049166e-04 -2.049166e-04 2.734257e+00
1.269000e+00 1.000000e+00 2.051204e-04 -2.051204e-04 2.734398e+00
1.270000e+00 1.000000e+00 2.053223e-04 -2.053223e-04 2.734539e+00
1.271000e+00 1.000000e+00 2.055225e-04 -2.055225e-04 2.734680e+00
1.272000e+00 1.000000e+00 2.057209e-04 -2.057209e-04 2.734822e+00
1.273000e+00 1.000000e+00 2.059175e-04 -2.059175e-04 2.734963e+00
1.274000e+00 1.000000e+00 2.061123e-04 -2.061123e-04 2.735104e+00
1.275000e+00 1.000000e+00 2.063053e-04 -2.063053e-04 2.735246e+00
1.276000e+00 1.000000e+00 2.064965e-04 -2.064965e-04 2.735387e+00
1.277000e+00 1.000000e+00 2.066859e-04 -2.066859e-04 2.735529e+00
1.278000e+00 1.000000e+00 2.068736e-04 -2.068736e-04 2.735670e+00
1.279000e+00 1.000000e+00 2.070594e-04 -2.070594e-04 2.735812e+00
1.280000e+00 1.000000e+00 2.072434e-04 -2.072434e-04 2.735953e+00
1.281000e+00 1.000000e+00 2.074257e-04 -2.074257e-04 2.736095e+00
1.282000e+00 1.000000e+00 2.076061e-04 -2.076061e-04 2.736237e+00
1.283000e+00 1.000000e+00 2.077848e-04 -2.077848e-04 2.736378e+00
1.284000e+00 1.000000e+00 2.079616e-04 -2.079616e-04 2.736520e+00
1.285000e+00 1.000000e+00 2.081366e-04 -2.081366e-04 2.736662e+00
1.286000e+00 1.000000e+00 2.083098e-04 -2.083098e-04 2.736804e+00
1.287000e+00 1.000000e+00 2.084812e-04 -2.084812e-04 2.736946e+00
1.288000e+00 1.000000e+00 2.086508e-04 -2.086508e-04 2.737087e+00
1.289000e+00 1.000000e+00 2.088186e-04 -2.088186e-04 2.737229e+00
1.290000e+00 1.000000e+00 2.089845e-04 -2.089845e-04 2.737371e+00
1.291000e+00 1.000000e+00 2.091487e-04 -2.091487e-04 2.737513e+00
1.292000e+00 1.000000e+00 2.093110e-04 -2.093110e-04 2.737655e+00
1.293000e+00 1.000000e+00 2.094715e-04 -2.094715e-04 2.737797e+00
1.294000e+00 1.000000e+00 2.096302e-04 -2.096302e-04 2.737940e+00
1.295000e+00 1.000000e+00 2.097870e-04 -2.097870e-04 2.738082e+00
1.296000e+00 1.000000e+00 2.099421e-04 -2.099421e-04 2.738224e+00
1.297000e+00 1.000000e+00 2.100953e-04 -2.100953e-04 2.738366e+00
1.298000e+00 1.000000e+00 2.102466e-04 -2.102466e-04 2.738508e+00
1.299000e+00 1.000000e+00 2.103962e-04 -2.103962e-04 2.738651e+00
1.300000e+00 1.000000e+00 2.105439e-04 -2.105439e-04 2.738793e+00
1.301000e+00 1.000000e+00 2.106897e-04 -2.106897e-04 2.738935e+00
1.302000e+00 1.000000e+00 2.108338e-04 -2.108338e-04 2.739078e+00
1.303000e+00 1.000000e+00 2.109760e-04 -2.109760e-04 2.739220e+00
1.304000e+00 1.000000e+00 2.111163e-04 -2.111163e-04 2.739363e+00
1.305000e+00 1.000000e+00 2.112548e-04 -2.112548e-04 2.739505e+00
1.306000e+00 1.000000e+00 2.113915e-04 -2.113915e-04 2.739648e+00
1.307000e+00 1.000000e+00 2.115263e-04 -2.115263e-04 2.739790e+00
1.308000e+00 1.000000e+00 2.116593e-04 -2.116593e-04 2.739933e+00
1.309000e+00 1.000000e+00 2.117904e-04 -2.117904e-04 2.740076e+00
1.310000e+00 1.000000e+00 2.119197e-04 -2.119197e-04 2.740218e+00
1.311000e+00 1.000000e+00 2.120471e-04 -2.120471e-04 2.740361e+00
1.312000e+00 1.000000e+00 2.121726e-04 -2.121726e-04 2.740504e+00
1.313000e+00 1.000000e+00 2.122964e-04 -2.122964e-04 2.740647e+00
1.314000e+00 1.000000e+00 2.124182e-04 -2.124182e-04 2.740789e+00
1.315000e+00 1.000000e+00 2.125382e-04 -2.125382e-04 2.740932e+00
1.316000e+00 1.000000e+00 2.126563e-04 -2.126563e-04 2.741075e+00
1.317000e+00 1.000000e+00 2.127726e-04 -2.127726e-04 2.741218e+00
1.318000e+00 1.000000e+00 2.128870e-04 -2.128870e-04 2.741361e+00
1.319000e+00 1.000000e+00 2.129995e-04 -2.129995e-04 2.741504e+00
1.320000e+00 1.000000e+00 2.131102e-04 -2.131102e-04 2.741647e+00
1.321000e+00 1.000000e+00 2.132190e-04 -2.132190e-04 2.741790e+00
1.322000e+00 1.000000e+00 2.133259e-04 -2.133259e-04 2.741933e+00
1.323000e+00 1.000000e+00 2.134309e-04 -2.134309e-04 2.742076e+00
1.324000e+00 1.000000e+00 2.135341e-04 -2.135341e-04 2.742219e+00
1.325000e+00 1.000000e+00 2.136354e-04 -2.136354e-04 2.742363e+00
1.326000e+00 1.000000e+00 2.137348e-04 -2.137348e-04 2.742506e+00
1.327000e+00 1.000000e+00 2.138323e-04 -2.138323e-04 2.742649e+00
1.328000e+00 1.000000e+00 2.139280e-04 -2.139280e-04 2.742792e+00
1.329000e+00 1.000000e+00 2.140218e-04 -2.140218e-04 2.742936e+00
1.330000e+00 1.000000e+00 2.141136e-04 -2.141136e-04 2.743079e+00
1.331000e+00 1.000000e+00 2.142036e-04 -2.142036e-04 2.743222e+00
1.332000e+00 1.000000e+00 2.142917e-04 -2.142917e-04 2.743366e+00
1.333000e+00 1.000000e+00 2.143779e-04 -2.143779e-04 2.743509e+00
1.334000e+00 1.000000e+00 2.144623e-04 -2.144623e-04 2.743653e+00
1.335000e+00 1.000000e+00 2.145447e-04 -2.145447e-04 2.743796e+00
1.336000e+00 1.000000e+00 2.146252e-04 -2.146252e-04 2.743940e+00
1.337000e+00 1.000000e+00 2.147038e-04 -2.147038e-04 2.744083e+00
1.338000e+00 1.000000e+00 2.147806e-04 -2.147806e-04 2.744227e+00
1.339000e+00 1.000000e+00 2.148554e-04 -2.148554e-04 2.744370e+00
1.340000e+00 1.000000e+00 2.149283e-04 -2.149283e-04 2.744514e+00
1.341000e+00 1.000000e+00 2.149994e-04 -2.149994e-04 2.744658e+00
1.342000e+00 1.000000e+00 2.150685e-04 -2.150685e-04 2.744801e+00
1.343000e+00 1.000000e+00 2.151357e-04 -2.151357e-04 2.744945e+00
1.344000e+00 1.000000e+00 2.152010e-04 -2.152010e-04 2.745089e+00
1.345000e+00 1.000000e+00 2.152644e-04 -2.152644e-04 2.745232e+00
1.346000e+00 1.000000e+00 2.153258e-04 -2.153258e-04 2.745376e+00
1.347000e+00 1.000000e+00 2.153854e-04 -2.153854e-04 2.745520e+00
1.348000e+00 1.000000e+00 2.154430e-04 -2.154430e-04 2.745664e+00
1.349000e+00 1.000000e+00 2.154988e-04 -2.154988e-04 2.745808e+00
1.350000e+00 1.000000e+00 2.155526e-04 -2.155526e-04 2.745952e+00
1.351000e+00 1.000000e+00 2.156045e-04 -2.156045e-04 2.746096e+00
1.352000e+00 1.000000e+00 2.156544e-04 -2.156544e-04 2.746240e+00
1.353000e+00 1.000000e+00 2.157025e-04 -2.157025e-04 2.746384e+00
1.354000e+00 1.000000e+00 2.157486e-04 -2.157486e-04 2.746528e+00
1.355000e+00 1.000000e+00 2.157927e-04 -2.157927e-04 2.746672e+00
1.356000e+00 1.000000e+00 2.158350e-04 -2.158350e-04 2.746816e+00
1.357000e+00 1.000000e+00 2.158753e-04 -2.158753e-04 2.746960e+00
1.358000e+00 1.000000e+00 2.159137e-04 -2.159137e-04 2.747104e+00
1.359000e+00 1.000000e+00 2.159502e-04 -2.159502e-04 2.747248e+00
1.360000e+00 1.000000e+00 2.159847e-04 -2.159847e-04 2.747392e+00
1.361000e+00 1.000000e+00 2.160173e-04 -2.160173e-04 2.747537e+00
1.362000e+00 1.000000e+00 2.160479e-04 -2.160479e-04 2.747681e+00
1.363000e+00 1.000000e+00 2.160766e-04 -2.160766e-04 2.747825e+00
1.364000e+00 1.000000e+00 2.161034e-04 -2.161034e-04 2.747969e+00
1.365000e+00 1.000000e+00 2.161282e-04 -2.161282e-04 2.748114e+00
1.366000e+00 1.000000e+00 2.161511e-04 -2.161511e-04 2.748258e+00
1.367000e+00 1.000000e+00 2.161720e-04 -2.161720e-04 2.748402e+00
1.368000e+00 1.000000e+00 2.161910e-04 -2.161910e-04 2.748547e+00
1.369000e+00 1.000000e+00 2.162080e-04 -2.162080e-04 2.748691e+00
1.370000e+00 1.000000e+00 2.162231e-04 -2.162231e-04 2.748835e+00
1.371000e+00 1.000000e+00 2.162362e-04 -2.162362e-04 2.748980e+00
1.372000e+00 1.000000e+00 2.162474e-04 -2.162474e-04 2.749124e+00
1.373000e+00 1.000000e+00 2.162566e-04 -2.162566e-04 2.749269e+00
1.374000e+00 1.000000e+00 2.162638e-04 -2.162638e-04 2.749413e+00
1.375000e+00 1.000000e+00 2.162691e-04 -2.162691e-04 2.749558e+00
1.376000e+00 1.000000e+00 2.162725e-04 -2.162725e-04 2.749703e+00
1.377000e+00 1.000000e+00 2.162738e-04 -2.162738e-04 2.749847e+00
1.378000e+00 1.000000e+00 2.162732e-04 -2.162732e-04 2.749992e+00
1.379000e+00 1.000000e+00 2.162707e-04 -2.162707e-04 2.750136e+00
1.380000e+00 1.000000e+00 2.162662e-04 -2.162662e-04 2.750281e+00
1.381000e+00 1.000000e+00 2.162597e-04 -2.162597e-04 2.750426e+00
1.382000e+00 1.000000e+00 2.162512e-04 -2.162512e-04 2.750571e+00
1.383000e+00 1.000000e+00 2.162408e-04 -2.162408e-04 2.750715e+00
1.384000e+00 1.000000e+00 2.162284e-04 -2.162284e-04 2.750860e+00
1.385000e+00 1.000000e+00 2.162140e-04 -2.162140e-04 2.751005e+00
1.386000e+00 1.000000e+00 2.161977e-04 -2.161977e-04 2.751150e+00
1.387000e+00 1.000000e+00 2.161794e-04 -2.161794e-04 2.751294e+00
1.388000e+00 1.000000e+00 2.161591e-04 -2.161591e-04 2.751439e+00
1.389000e+00 1.000000e+00 2.161368e-04 -2.161368e-04 2.751584e+00
1.390000e+00 1.000000e+00 2.161125e-04 -2.161125e-04 2.751729e+00
1.391000e+00 1.000000e+00 2.160863e-04 -2.160863e-04 2.751874e+00
1.392000e+00 1.000000e+00 2.160580e-04 -2.160580e-04 2.752019e+00
1.393000e+00 1.000000e+00 2.160278e-04 -2.160278e-04 2.752164e+00
1.394000e+00 1.000000e+00 2.159956e-04 -2.159956e-04 2.752309e+00
1.395000e+00 1.000000e+00 2.159615e-04 -2.159615e-04 2.752454e+00
1.396000e+00 1.000000e+00 2.159253e-04 -2.159253e-04 2.752599e+00
1.397000e+00 1.000000e+00 2.158871e-04 -2.158871e-04 2.752744e+00
1.398000e+00 1.000000e+00 2.158470e-04 -2.158470e-04 2.752889e+00
1.399000e+00 1.000000e+00 2.158048e-04 -2.158048e-04 2.753034e+00
1.400000e+00 1.000000e+00 2.157607e-04 -2.157607e-04 2.753179e+00
1.401000e+00 1.000000e+00 2.157145e-04 -2.157145e-04 2.753324e+00
1.402000e+00 1.000000e+00 2.156664e-04 -2.156664e-04 2.753469e+00
1.403000e+00 1.000000e+00 2.156163e-04 -2.156163e-04 2.753615e+00
1.404000e+00 1.000000e+00 2.155642e-04 -2.155642e-04 2.753760e+00
1.405000e+00 1.000000e+00 2.155100e-04 -2.155100e-04 2.753905e+00
1.406000e+00 1.000000e+00 2.154539e-04 -2.154539e-04 2.754050e+00
1.407000e+00 1.000000e+00 2.153958e-04 -2.153958e-04 2.754195e+00
1.408000e+00 1.000000e+00 2.153356e-04 -2.153356e-04 2.754341e+00
1.409000e+00 1.000000e+00 2.152735e-04 -2.152735e-04 2.754486e+00
1.410000e+00 1.000000e+00 2.152094e-04 -2.152094e-04 2.754631e+00
1.411000e+00 1.000000e+00 2.151432e-04 -2.151432e-04 2.754777e+00
1.412000e+00 1.000000e+00 2.150750e-04 -2.150750e-04 2.754922e+00
1.413000e+00 1.000000e+00 2.150049e-04 -2.150049e-04 2.755067e+00
1.414000e+00 1.000000e+00 2.149327e-04 -2.149327e-04 2.755213e+00
1.415000e+00 1.000000e+00 2.148585e-04 -2.148585e-04 2.755358e+00
1.416000e+00 1.000000e+00 2.147823e-04 -2.147823e-04 2.755503e+00
1.417000e+00 1.000000e+00 2.147041e-04 -2.147041e-04 2.755649e+00
1.418000e+00 1.000000e+00 2.146238e-04 -2.146238e-04 2.755794e+00
1.419000e+00 1.000000e+00 2.145416e-04 -2.145416e-04 2.755940e+00
1.420000e+00 1.000000e+00 2.144573e-04 -2.144573e-04 2.756085e+00
1.421000e+00 1.000000e+00 2.143710e-04 -2.143710e-04 2.756231e+00
1.422000e+00 1.000000e+00 2.142827e-04 -2.142827e-04 2.756376e+00
1.423000e+00 1.000000e+00 2.141924e-04 -2.141924e-04 2.756522e+00
1.424000e+00 1.000000e+00 2.141000e-04 -2.141000e-04 2.756667e+00
1.425000e+00 1.000000e+00 2.140056e-04 -2.140056e-04 2.756813e+00
1.426000e+00 1.000000e+00 2.139092e-04 -2.139092e-04 2.756958e+00
1.427000e+00 1.000000e+00 2.138108e-04 -2.138108e-04 2.757104e+00
1.428000e+00 1.000000e+00 2.137104e-04 -2.137104e-04 2.757250e+00
1.429000e+00 1.000000e+00 2.136079e-04 -2.136079e-04 2.757395e+00
1.430000e+00 1.000000e+00 2.135034e-04 -2.135034e-04 2.757541e+00
1.431000e+00 1.000000e+00 2.133969e-04 -2.133969e-04 2.757687e+00
1.432000e+00 1.000000e+00 2.132883e-04 -2.132883e-04 2.757832e+00
1.433000e+00 1.000000e+00 2.131777e-04 -2.131777e-04 2.757978e+00
1.434000e+00 1.000000e+00 2.130651e-04 -2.130651e-04 2.758124e+00
1.435000e+00 1.000000e+00 2.129504e-04 -2.129504e-04 2.758269e+00
1.436000e+00 1.000000e+00 2.128337e-04 -2.128337e-04 2.758415e+00
1.437000e+00 1.000000e+00 2.127150e-04 -2.127150e-04 2.758561e+00
1.438000e+00 1.000000e+00 2.125942e-04 -2.125942e-04 2.758707e+00
1.439000e+00 1.000000e+00 2.124714e-04 -2.124714e-04 2.758852e+00
1.440000e+00 1.000000e+00 2.123466e-04 -2.123466e-04 2.758998e+00
1.441000e+00 1.000000e+00 2.122197e-04 -2.122197e-04 2.759144e+00
1.442000e+00 1.000000e+00 2.120908e-04 -2.120908e-04 2.759290e+00
1.443000e+00 1.000000e+00 2.119599e-04 -2.119599e-04 2.759436e+00
1.444000e+00 1.000000e+00 2.118269e-04 -2.118269e-04 2.759582e+00
1.445000e+00 1.000000e+00 2.116918e-04 -2.116918e-04 2.759727e+00
1.446000e+00 1.000000e+00 2.115548e-04 -2.115548e-04 2.759873e+00
1.447000e+00 1.000000e+00 2.114156e-04 -2.114156e-04 2.760019e+00
1.448000e+00 1.000000e+00 2.112745e-04 -2.112745e-04 2.760165e+00
1.449000e+00 1.000000e+00 2.111313e-04 -2.111313e-04 2.760311e+00
1.450000e+00 1.000000e+00 2.109860e-04 -2.109860e-04 2.760457e+00
1.451000e+00 1.000000e+00 2.108387e-04 -2.108387e-04 2.760603e+00
1.452000e+00 1.000000e+00 2.106894e-04 -2.106894e-04 2.760749e+00
1.453000e+00 1.000000e+00 2.105380e-04 -2.105380e-04 2.760895e+00
1.454000e+00 1.000000e+00 2.103845e-04 -2.103845e-04 2.761041e+00
1.455000e+00 1.000000e+00 2.102291e-04 -2.102291e-04 2.761187e+00
1.456000e+00 1.000000e+00 2.100715e-04 -2.100715e-04 2.761333e+00
1.457000e+00 1.000000e+00 2.099119e-04 -2.099119e-04 2.761479e+00
1.458000e+00 1.000000e+00 2.097503e-04 -2.097503e-04 2.761625e+00
1.459000e+00 1.000000e+00 2.095866e-04 -2.095866e-04 2.761771e+00
1.460000e+00 1.000000e+00 2.094209e-04 -2.094209e-04 2.761917e+00
1.461000e+00 1.000000e+00 2.092531e-04 -2.092531e-04 2.762063e+00
1.462000e+00 1.000000e+00 2.090832e-04 -2.090832e-04 2.762209e+00
1.463000e+00 1.000000e+00 2.089113e-04 -2.089113e-04 2.762355e+00
1.464000e+00 1.000000e+00 2.087374e-04 -2.087374e-04 2.762501e+00
1.465000e+00 1.000000e+00 2.085614e-04 -2.085614e-04 2.762648e+00
1.466000e+00 1.000000e+00 2.083833e-04 -2.083833e-04 2.762794e+00
1.467000e+00 1.000000e+00 2.082032e-04 -2.082032e-04 2.762940e+00
1.468000e+00 1.000000e+00 2.080210e-04 -2.080210e-04 2.763086e+00
1.469000e+00 1.000000e+00 2.078368e-04 -2.078368e-04 2.763232e+00
1.470000e+00 1.000000e+00 2.076505e-04 -2.076505e-04 2.763378e+00
1.471000e+00 1.000000e+00 2.074621e-04 -2.074621e-04 2.763525e+00
1.472000e+00 1.000000e+00 2.072717e-04 -2.072717e-04 2.763671e+00
1.473000e+00 1.000000e+00 2.070793e-04 -2.070793e-04 2.763817e+00
1.474000e+00 1.000000e+00 2.068847e-04 -2.068847e-04 2.763963e+00
1.475000e+00 1.000000e+00 2.066881e-04 -2.066881e-04 2.764109e+00
1.476000e+00 1.000000e+00 2.064895e-04 -2.064895e-04 2.764256e+00
1.477000e+00 1.000000e+00 2.062888e-04 -2.062888e-04 2.764402e+00
1.478000e+00 1.000000e+00 2.060860e-04 -2.060860e-04 2.764548e+00
1.479000e+00 1.000000e+00 2.058812e-04 -2.058812e-04 2.764694e+00
1.480000e+00 1.000000e+00 2.056743e-04 -2.056743e-04 2.764841e+00
1.481000e+00 1.000000e+00 2.054654e-04 -2.054654e-04 2.764987e+00
1.482000e+00 1.000000e+00 2.052544e-04 -2.052544e-04 2.765133e+00
1.483000e+00 1.000000e+00 2.050413e-04 -2.050413e-04 2.765280e+00
1.484000e+00 1.000000e+00 2.048262e-04 -2.048262e-04 2.765426e+00
1.485000e+00 1.000000e+00 2.046090e-04 -2.046090e-04 2.765572e+00
1.486000e+00 1.000000e+00 2.043897e-04 -2.043897e-04 2.765719e+00
1.487000e+00 1.000000e+00 2.041684e-04 -2.041684e-04 2.765865e+00
1.488000e+00 1.000000e+00 2.039450e-04 -2.039450e-04 2.766011e+00
1.489000e+00 1.000000e+00 2.037195e-04 -2.037195e-04 2.766158e+00
1.490000e+00 1.000000e+00 2.034920e-04 -2.034920e-04 2.766304e+00
1.491000e+00 1.000000e+00 2.032625e-04 -2.032625e-04 2.766450e+00
1.492000e+00 1.000000e+00 2.030308e-04 -2.030308e-04 2.766597e+00
1.493000e+00 1.000000e+00 2.027971e-04 -2.027971e-04 2.766743e+00
1.494000e+00 1.000000e+00 2.025613e-04 -2.025613e-04 2.766890e+00
1.495000e+00 1.000000e+00 2.023235e-04 -2.023235e-04 2.767036e+00
1.496000e+00 1.000000e+00 2.020836e-04 -2.020836e-04 2.767182e+00
1.497000e+00 1.000000e+00 2.018416e-04 -2.018416e-04 2.767329e+00
1.498000e+00 1.000000e+00 2.015976e-04 -2.015976e-04 2.767475e+00
1.499000e+00 1.000000e+00 2.013515e-04 -2.013515e-04 2.767622e+00
1.500000e+00 1.000000e+00 2.011034e-04 -2.011034e-04 2.767768e+00
1.501000e+00 1.000000e+00 2.008531e-04 -2.008531e-04 2.767915e+00
1.502000e+00 1.000000e+00 2.006008e-04 -2.006008e-04 2.768061e+00
1.503000e+00 1.000000e+00 2.003465e-04 -2.003465e-04 2.768207e+00
1.504000e+00 1.000000e+00 2.000901e-04 -2.000901e-04 2.768354e+00
1.505000e+00 1.000000e+00 1.998316e-04 -1.998316e-04 2.768500e+00
1.506000e+00 1.000000e+00 1.995710e-04 -1.995710e-04 2.768647e+00
1.507000e+00 1.000000e+00 1.993084e-04 -1.993084e-04 2.768793e+00
1.508000e+00 1.000000e+00 1.990438e-04 -1.990438e-04 2.768940e+00
1.509000e+00 1.000000e+00 1.987770e-04 -1.987770e-04 2.769086e+00
1.510000e+00 1.000000e+00 1.985082e-04 -1.985082e-04 2.769233e+00
1.511000e+00 1.000000e+00 1.982373e-04 -1.982373e-04 2.769379e+00
1.512000e+00 1.000000e+00 1.979644e-04 -1.979644e-04 2.769526e+00
1.513000e+00 1.000000e+00 1.976894e-04 -1.976894e-04 2.769672e+00
1.514000e+00 1.000000e+00 1.974124e-04 -1.974124e-04 2.769819e+00
1.515000e+00 1.000000e+00 1.971332e-04 -1.971332e-04 2.769966e+00
1.516000e+00 1.000000e+00 1.968520e-04 -1.968520e-04 2.770112e+00
1.517000e+00 1.000000e+00 1.965688e-04 -1.965688e-04 2.770259e+00
1.518000e+00 1.000000e+00 1.962835e-04 -1.962835e-04 2.770405e+00
1.519000e+00 1.000000e+00 1.959961e-04 -1.959961e-04 2.770552e+00
1.520000e+00 1.000000e+00 1.957067e-04 -1.957067e-04 2.770698e+00
1.521000e+00 1.000000e+00 1.954152e-04 -1.954152e-04 2.770845e+00
1.522000e+00 1.000000e+00 1.951216e-04 -1.951216e-04 2.770991e+00
1.523000e+00 1.000000e+00 1.948260e-04 -1.948260e-04 2.771138e+00
1.524000e+00 1.000000e+00 1.945283e-04 -1.945283e-04 2.771285e+00
1.525000e+00 1.000000e+00 1.942285e-04 -1.942285e-04 2.771431e+00
1.526000e+00 1.000000e+00 1.939267e-04 -1.939267e-04 2.771578e+00
1.527000e+00 1.000000e+00 1.936229e-04 -1.936229e-04 2.771724e+00
1.528000e+00 1.000000e+00 1.933169e-04 -1.933169e-04 2.771871e+00
1.529000e+00 1.000000e+00 1.930090e-04 -1.930090e-04 2.772018e+00
1.530000e+00 1.000000e+00 1.926989e-04 -1.926989e-04 2.772164e+00
1.531000e+00 1.000000e+00 1.923868e-04 -1.923868e-04 2.772311e+00
1.532000e+00 1.000000e+00 1.920727e-04 -1.920727e-04 2.772457e+00
1.533000e+00 1.000000e+00 1.917565e-04 -1.917565e-04 2.772604e+00
1.534000e+00 1.000000e+00 1.914382e-04 -1.914382e-04 2.772751e+00
1.535000e+00 1.000000e+00 1.911179e-04 -1.911179e-04 2.772897e+00
1.536000e+00 1.000000e+00 1.907955e-04 -1.907955e-04 2.773044e+00
1.537000e+00 1.000000e+00 1.904710e-04 -1.904710e-04 2.773190e+00
1.538000e+00 1.000000e+00 1.901445e-04 -1.901445e-04 2.773337e+00
1.539000e+00 1.000000e+00 1.898160e-04 -1.898160e-04 2.773484e+00
1.540000e+00 1.000000e+00 1.894854e-04 -1.894854e-04 2.773630e+00
1.541000e+00 1.000000e+00 1.891527e-04 -1.891527e-04 2.773777e+00
1.542000e+00 1.000000e+00 1.888180e-04 -1.888180e-04 2.773924e+00
1.543000e+00 1.000000e+00 1.884813e-04 -1.884813e-04 2.774070e+00
1.544000e+00 1.000000e+00 1.881425e-04 -1.881425e-04 2.774217e+00
1.545000e+00 1.000000e+00 1.878016e-04 -1.878016e-04 2.774364e+00
1.546000e+00 1.000000e+00 1.874587e-04 -1.874587e-04 2.774510e+00
1.547000e+00 1.000000e+00 1.871138e-04 -1.871138e-04 2.774657e+00
1.548000e+00 1.000000e+00 1.867668e-04 -1.867668e-04 2.774803e+00
1.549000e+00 1.000000e+00 1.864177e-04 -1.864177e-04 2.774950e+00
1.550000e+00 1.000000e+00 1.860666e-04 -1.860666e-04 2.775097e+00
1.551000e+00 1.000000e+00 1.857135e-04 -1.857135e-04 2.775243e+00
1.552000e+00 1.000000e+00 1.853583e-04 -1.853583e-04 2.775390e+00
1.553000e+00 1.000000e+00 1.850011e-04 -1.850011e-04 2.775537e+00
1.554000e+00 1.000000e+00 1.846418e-04 -1.846418e-04 2.775683e+00
1.555000e+00 1.000000e+00 1.842805e-04 -1.842805e-04 2.775830e+00
1.556000e+00 1.000000e+00 1.839171e-04 -1.839171e-04 2.775977e+00
1.557000e+00 1.000000e+00 1.835517e-04 -1.835517e-04 2.776123e+00
1.558000e+00 1.000000e+00 1.831843e-04 -1.831843e-04 2.776270e+00
1.559000e+00 1.000000e+00 1.828148e-04 -1.828148e-04 2.776417e+00
1.560000e+00 1.000000e+00 1.824433e-04 -1.824433e-04 2.776563e+00
1.561000e+00 1.000000e+00 1.820698e-04 -1.820698e-04 2.776710e+00
1.562000e+00 1.000000e+00 1.816942e-04 -1.816942e-04 2.776857e+00
1.563000e+00 1.000000e+00 1.813166e-04 -1.813166e-04 2.777003e+00
1.564000e+00 1.000000e+00 1.809369e-04 -1.809369e-04 2.777150e+00
1.565000e+00 1.000000e+00 1.805552e-04 -1.805552e-04 2.777297e+00
1.566000e+00 1.000000e+00 1.801715e-04 -1.801715e-04 2.777443e+00
1.567000e+00 1.000000e+00 1.797858e-04 -1.797858e-04 2.777590e+00
1.568000e+00 1.000000e+00 1.793980e-04 -1.793980e-04 2.777737e+00
1.569000e+00 1.000000e+00 1.790082e-04 -1.790082e-04 2.777883e+00
1.570000e+00 1.000000e+00 1.786164e-04 -1.786164e-04 2.778030e+00
1.571000e+00 1.000000e+00 1.782225e-04 -1.782225e-04 2.778177e+00
1.572000e+00 1.000000e+00 1.778267e-04 -1.778267e-04 2.778323e+00
1.573000e+00 1.000000e+00 1.774288e-04 -1.774288e-04 2.778470e+00
1.574000e+00 1.000000e+00 1.770288e-04 -1.770288e-04 2.778617e+00
1.575000e+00 1.000000e+00 1.766269e-04 -1.766269e-04 2.778763e+00
1.576000e+00 1.000000e+00 1.762229e-04 -1.762229e-04 2.778910e+00
1.577000e+00 1.000000e+00 1.758169e-04 -1.758169e-04 2.779057e+00
1.578000e+00 1.000000e+00 1.754089e-04 -1.754089e-04 2.779203e+00
1.579000e+00 1.000000e+00 1.749989e-04 -1.749989e-04 2.779350e+00
1.580000e+00 1.000000e+00 1.745869e-04 -1.745869e-04 2.779497e+00
1.581000e+00 1.000000e+00 1.741728e-04 -1.741728e-04 2.779643e+00
1.582000e+00 1.000000e+00 1.737568e-04 -1.737568e-04 2.779790e+00
1.583000e+00 1.000000e+00 1.733387e-04 -1.733387e-04 2.779936e+00
1.584000e+00 1.000000e+00 1.729186e-04 -1.729186e-04 2.780083e+00
1.585000e+00 1.000000e+00 1.724965e-04 -1.724965e-04 2.780230e+00
1.586000e+00 1.000000e+00 1.720725e-04 -1.720725e-04 2.780376e+00
1.587000e+00 1.000000e+00 1.716464e-04 -1.716464e-04 2.780523e+00
1.588000e+00 1.000000e+00 1.712183e-04 -1.712183e-04 2.780670e+00
1.589000e+00 1.000000e+00 1.707882e-04 -1.707882e-04 2.780816e+00
1.590000e+00 1.000000e+00 1.703560e-04 -1.703560e-04 2.780963e+00
1.591000e+00 1.000000e+00 1.699219e-04 -1.699219e-04 2.781110e+00
1.592000e+00 1.000000e+00 1.694858e-04 -1.694858e-04 2.781256e+00
1.593000e+00 1.000000e+00 1.690477e-04 -1.690477e-04 2.781403e+00
1.594000e+00 1.000000e+00 1.686077e-04 -1.686077e-04 2.781549e+00
1.595000e+00 1.000000e+00 1.681656e-04 -1.681656e-04 2.781696e+00
1.596000e+00 1.000000e+00 1.677215e-04 -1.677215e-04 2.781843e+00
1.597000e+00 1.000000e+00 1.672754e-04 -1.672754e-04 2.781989e+00
1.598000e+00 1.000000e+00 1.668274e-04 -1.668274e-04 2.782136e+00
1.599000e+00 1.000000e+00 1.663773e-04 -1.663773e-04 2.782282e+00
1.600000e+00 1.000000e+00 1.659253e-04 -1.659253e-04 2.782429e+00
1.601000e+00 1.000000e+00 1.654713e-04 -1.654713e-04 2.782576e+00
1.602000e+00 1.000000e+00 1.650153e-04 -1.650153e-04 2.782722e+00
1.603000e+00 1.000000e+00 1.645573e-04 -1.645573e-04 2.782869e+00
1.604000e+00 1.000000e+00 1.640974e-04 -1.640974e-04 2.783015e+00
1.605000e+00 1.000000e+00 1.636354e-04 -1.636354e-04 2.783162e+00
1.606000e+00 1.000000e+00 1.631715e-04 -1.631715e-04 2.783308e+00
1.607000e+00 1.000000e+00 1.627057e-04 -1.627057e-04 2.783455e+00
1.608000e+00 1.000000e+00 1.622378e-04 -1.622378e-04 2.783602e+00
1.609000e+00 1.000000e+00 1.617680e-04 -1.617680e-04 2.783748e+00
1.610000e+00 1.000000e+00 1.612962e-04 -1.612962e-04 2.783895e+00
1.611000e+00 1.000000e+00 1.608225e-04 -1.608225e-04 2.784041e+00
1.612000e+00 1.000000e+00 1.603467e-04 -1.603467e-04 2.784188e+00
1.613000e+00 1.000000e+00 1.598691e-04 -1.598691e-04 2.784334e+00
1.614000e+00 1.000000e+00 1.593894e-04 -1.593894e-04 2.784481e+00
1.615000e+00 1.000000e+00 1.589078e-04 -1.589078e-04 2.784627e+00
1.616000e+00 1.000000e+00 1.584243e-04 -1.584243e-04 2.784774e+00
1.617000e+00 1.000000e+00 1.579388e-04 -1.579388e-04 2.784920e+00
1.618000e+00 1.000000e+00 1.574513e-04 -1.574513e-04 2.785067e+00
1.619000e+00 1.000000e+00 1.569619e-04 -1.569619e-04 2.785213e+00
1.620000e+00 1.000000e+00 1.564705e-04 -1.564705e-04 2.785360e+00
1.621000e+00 1.000000e+00 1.559772e-04 -1.559772e-04 2.785506e+00
1.622000e+00 1.000000e+00 1.554820e-04 -1.554820e-04 2.785653e+00
1.623000e+00 1.000000e+00 1.549848e-04 -1.549848e-04 2.785799e+00
1.624000e+00 1.000000e+00 1.544857e-04 -1.544857e-04 2.785946e+00
1.625000e+00 1.000000e+00 1.539846e-04 -1.539846e-04 2.786092e+00
1.626000e+00 1.000000e+00 1.534816e-04 -1.534816e-04 2.786239e+00
1.627000e+00 1.000000e+00 1.529767e-04 -1.529767e-04 2.786385e+00
1.628000e+00 1.000000e+00 1.524698e-04 -1.524698e-04 2.786532e+00
1.629000e+00 1.000000e+00 1.519610e-04 -1.519610e-04 2.786678e+00
1.630000e+00 1.000000e+00 1.514503e-04 -1.514503e-04 2.786825e+00
1.631000e+00 1.000000e+00 1.509376e-04 -1.509376e-04 2.786971e+00
1.632000e+00 1.000000e+00 1.504230e-04 -1.504230e-04 2.787117e+00
1.633000e+00 1.000000e+00 1.499065e-04 -1.499065e-04 2.787264e+00
1.634000e+00 1.000000e+00 1.493881e-04 -1.493881e-04 2.787410e+00
1.635000e+00 1.000000e+00 1.488678e-04 -1.488678e-04 2.787557e+00
1.636000e+00 1.000000e+00 1.483455e-04 -1.483455e-04 2.787703e+00
1.637000e+00 1.000000e+00 1.478214e-04 -1.478214e-04 2.787849e+00
1.638000e+00 1.000000e+00 1.472953e-04 -1.472953e-04 2.787996e+00
1.639000e+00 1.000000e+00 1.467673e-04 -1.467673e-04 2.788142e+00
1.640000e+00 1.000000e+00 1.462374e-04 -1.462375e-04 2.788289e+00
1.641000e+00 1.000000e+00 1.457057e-04 -1.457057e-04 2.788435e+00
1.642000e+00 1.000000e+00 1.451720e-04 -1.451720e-04 2.788581e+00
1.643000e+00 1.000000e+00 1.446364e-04 -1.446364e-04 2.788728e+00
1.644000e+00 1.000000e+00 1.440989e-04 -1.440989e-04 2.788874e+00
1.645000e+00 1.000000e+00 1.435596e-04 -1.435596e-04 2.789020e+00
1.646000e+00 1.000000e+00 1.430183e-04 -1.430183e-04 2.789167e+00
1.647000e+00 1.000000e+00 1.424752e-04 -1.424752e-04 2.789313e+00
1.648000e+00 1.000000e+00 1.419301e-04 -1.419301e-04 2.789459e+00
1.649000e+00 1.000000e+00 1.413832e-04 -1.413832e-04 2.789606e+00
1.650000e+00 1.000000e+00 1.408344e-04 -1.408344e-04 2.789752e+00
1.651000e+00 1.000000e+00 1.402837e-04 -1.402837e-04 2.789898e+00
1.652000e+00 1.000000e+00 1.397312e-04 -1.397312e-04 2.790044e+00
1.653000e+00 1.000000e+00 1.391768e-04 -1.391768e-04 2.790191e+00
1.654000e+00 1.000000e+00 1.386205e-04 -1.386205e-04 2.790337e+00
1.655000e+00 1.000000e+00 1.380623e-04 -1.380623e-04 2.790483e+00
1.656000e+00 1.000000e+00 1.375023e-04 -1.375023e-04 2.790629e+00
1.657000e+00 1.000000e+00 1.369404e-04 -1.369404e-04 2.790776e+00
1.658000e+00 1.000000e+00 1.363767e-04 -1.363767e-04 2.790922e+00
1.659000e+00 1.000000e+00 1.358111e-04 -1.358111e-04 2.791068e+00
1.660000e+00 1.000000e+00 1.352436e-04 -1.352436e-04 2.791214e+00
1.661000e+00 1.000000e+00 1.346743e-04 -1.346743e-04 2.791361e+00
1.662000e+00 1.000000e+00 1.341031e-04 -1.341031e-04 2.791507e+00
1.663000e+00 1.000000e+00 1.335301e-04 -1.335301e-04 2.791653e+00
1.664000e+00 1.000000e+00 1.329553e-04 -1.329553e-04 2.791799e+00
1.665000e+00 1.000000e+00 1.323786e-04 -1.323786e-04 2.791945e+00
1.666000e+00 1.000000e+00 1.318001e-04 -1.318001e-04 2.792091e+00
1.667000e+00 1.000000e+00 1.312197e-04 -1.312197e-04 2.792238e+00
1.668000e+00 1.000000e+00 1.306375e-04 -1.306375e-04 2.792384e+00
1.669000e+00 1.000000e+00 1.300535e-04 -1.300535e-04 2.792530e+00
1.670000e+00 1.000000e+00 1.294677e-04 -1.294677e-04 2.792676e+00
1.671000e+00 1.000000e+00 1.288800e-04 -1.288800e-04 2.792822e+00
1.672000e+00 1.000000e+00 1.282905e-04 -1.282905e-04 2.792968e+00
1.673000e+00 1.000000e+00 1.276992e-04 -1.276992e-04 2.793114e+00
1.674000e+00 1.000000e+00 1.271061e-04 -1.271061e-04 2.793260e+00
1.675000e+00 1.000000e+00 1.265111e-04 -1.265111e-04 2.793406e+00
1.676000e+00 1.000000e+00 1.259144e-04 -1.259144e-04 2.793552e+00
1.677000e+00 1.000000e+00 1.253158e-04 -1.253158e-04 2.793698e+00
1.678000e+00 1.000000e+00 1.247155e-04 -1.247155e-04 2.793844e+00
1.679000e+00 1.000000e+00 1.241133e-04 -1.241133e-04 2.793990e+00
1.680000e+00 1.000000e+00 1.235094e-04 -1.235094e-04 2.794136e+00
1.681000e+00 1.000000e+00 1.229037e-04 -1.229037e-04 2.794282e+00
1.682000e+00 1.000000e+00 1.222961e-04 -1.222961e-04 2.794428e+00
1.683000e+00 1.000000e+00 1.216868e-04 -1.216868e-04 2.794574e+00
1.684000e+00 1.000000e+00 1.210757e-04 -1.210757e-04 2.794720e+00
1.685000e+00 1.000000e+00 1.204628e-04 -1.204628e-04 2.794866e+00
1.686000e+00 1.000000e+00 1.198481e-04 -1.198481e-04 2.795012e+00
1.687000e+00 1.000000e+00 1.192317e-04 -1.192317e-04 2.795158e+00
1.688000e+00 1.000000e+00 1.186135e-04 -1.186135e-04 2.795304e+00
1.689000e+00 1.000000e+00 1.179935e-04 -1.179935e-04 2.795450e+00
1.690000e+00 1.000000e+00 1.173717e-04 -1.173717e-04 2.795596e+00
1.691000e+00 1.000000e+00 1.167482e-04 -1.167482e-04 2.795742e+00
1.692000e+00 1.000000e+00 1.161230e-04 -1.161230e-04 2.795888e+00
1.693000e+00 1.000000e+00 1.154959e-04 -1.154959e-04 2.796033e+00
1.694000e+00 1.000000e+00 1.148672e-04 -1.148672e-04 2.796179e+00
1.695000e+00 1.000000e+00 1.142366e-04 -1.142366e-04 2.796325e+00
1.696000e+00 1.000000e+00 1.136043e-04 -1.136043e-04 2.796471e+00
1.697000e+00 1.000000e+00 1.129703e-04 -1.129703e-04 2.796617e+00
1.698000e+00 1.000000e+00 1.123346e-04 -1.123346e-04 2.796763e+00
1.699000e+00 1.000000e+00 1.116971e-04 -1.116971e-04 2.796908e+00
1.700000e+00 1.000000e+00 1.110578e-04 -1.110578e-04 2.797054e+00
1.701000e+00 1.000000e+00 1.104169e-04 -1.104169e-04 2.797200e+00
1.702000e+00 1.000000e+00 1.097742e-04 -1.097742e-04 2.797346e+00
1.703000e+00 1.000000e+00 1.091298e-04 -1.091298e-04 2.797491e+00
1.704000e+00 1.000000e+00 1.084837e-04 -1.084837e-04 2.797637e+00
1.705000e+00 1.000000e+00 1.078358e-04 -1.078358e-04 2.797783e+00
1.706000e+00 1.000000e+00 1.071863e-04 -1.071863e-04 2.797929e+00
1.707000e+00 1.000000e+00 1.065350e-04 -1.065350e-04 2.798074e+00
1.708000e+00 1.000000e+00 1.058820e-04 -1.058820e-04 2.798220e+00
1.709000e+00 1.000000e+00 1.052274e-04 -1.052274e-04 2.798366e+00
1.710000e+00 1.000000e+00 1.045710e-04 -1.045710e-04 2.798511e+00
1.711000e+00 1.000000e+00 1.039129e-04 -1.039129e-04 2.798657e+00
1.712000e+00 1.000000e+00 1.032532e-04 -1.032532e-04 2.798802e+00
1.713000e+00 1.000000e+00 1.025917e-04 -1.025917e-04 2.798948e+00
1.714000e+00 1.000000e+00 1.019286e-04 -1.019286e-04 2.799094e+00
1.715000e+00 1.000000e+00 1.012638e-04 -1.012638e-04 2.799239e+00
1.716000e+00 1.000000e+00 1.005973e-04 -1.005973e-04 2.799385e+00
1.717000e+00 1.000000e+00 9.992912e-05 -9.992912e-05 2.799530e+00
1.718000e+00 1.000000e+00 9.925928e-05 -9.925928e-05 2.799676e+00
1.719000e+00 1.000000e+00 9.858778e-05 -9.858778e-05 2.799821e+00
1.720000e+00 1.000000e+00 9.791462e-05 -9.791462e-05 2.799967e+00
1.721000e+00 1.000000e+00 9.723979e-05 -9.723979e-05 2.800112e+00
1.722000e+00 1.000000e+00 9.656331e-05 -9.656331e-05 2.800258e+00
1.723000e+00 1.000000e+00 9.588518e-05 -9.588518e-05 2.800403e+00
1.724000e+00 1.000000e+00 9.520540e-05 -9.520540e-05 2.800549e+00
1.725000e+00 1.000000e+00 9.452398e-05 -9.452398e-05 2.800694e+00
1.726000e+00 1.000000e+00 9.384091e-05 -9.384091e-05 2.800840e+00
1.727000e+00 1.000000e+00 9.315621e-05 -9.315621e-05 2.800985e+00
1.728000e+00 1.000000e+00 9.246988e-05 -9.246988e-05 2.801131e+00
1.729000e+00 1.000000e+00 9.178191e-05 -9.178191e-05 2.801276e+00
1.730000e+00 1.000000e+00 9.109232e-05 -9.109232e-05 2.801421e+00
1.731000e+00 1.000000e+00 9.040111e-05 -9.040111e-05 2.801567e+00
1.732000e+00 1.000000e+00 8.970828e-05 -8.970828e-05 2.801712e+00
1.733000e+00 1.000000e+00 8.901384e-05 -8.901384e-05 2.801857e+00
1.734000e+00 1.000000e+00 8.831778e-05 -8.831778e-05 2.802003e+00
1.735000e+00 1.000000e+00 8.762012e-05 -8.762012e-05 2.802148e+00
1.736000e+00 1.000000e+00 8.692086e-05 -8.692086e-05 2.802293e+00
1.737000e+00 1.000000e+00 8.622000e-05 -8.622000e-05 2.802439e+00
1.738000e+00 1.000000e+00 8.551754e-05 -8.551754e-05 2.802584e+00
1.739000e+00 1.000000e+00 8.481349e-05 -8.481349e-05 2.802729e+00
1.740000e+00 1.000000e+00 8.410785e-05 -8.410785e-05 2.802874e+00
1.741000e+00 1.000000e+00 8.340064e-05 -8.340064e-05 2.803019e+00
1.742000e+00 1.000000e+00 8.269184e-05 -8.269184e-05 2.803165e+00
1.743000e+00 1.000000e+00 8.198147e-05 -8.198147e-05 2.803310e+00
1.744000e+00 1.000000e+00 8.126952e-05 -8.126952e-05 2.803455e+00
1.745000e+00 1.000000e+00 8.055601e-05 -8.055601e-05 2.803600e+00
1.746000e+00 1.000000e+00 7.984094e-05 -7.984094e-05 2.803745e+00
1.747000e+00 1.000000e+00 7.912431e-05 -7.912431e-05 2.803890e+00
1.748000e+00 1.000000e+00 7.840612e-05 -7.840612e-05 2.804035e+00
1.749000e+00 1.000000e+00 7.768638e-05 -7.768638e-05 2.804181e+00
1.750000e+00 1.000000e+00 7.696509e-05 -7.696509e-05 2.804326e+00
1.751000e+00 1.000000e+00 7.624227e-05 -7.624227e-05 2.804471e+00
1.752000e+00 1.000000e+00 7.551790e-05 -7.551790e-05 2.804616e+00
1.753000e+00 1.000000e+00 7.479200e-05 -7.479200e-05 2.804761e+00
1.754000e+00 1.000000e+00 7.406457e-05 -7.406457e-05 2.804906e+00
1.755000e+00 1.000000e+00 7.333561e-05 -7.333561e-05 2.805051e+00
1.756000e+00 1.000000e+00 7.260513e-05 -7.260513e-05 2.805196e+00
1.757000e+00 1.000000e+00 7.187313e-05 -7.187313e-05 2.805341e+00
1.758000e+00 1.000000e+00 7.113962e-05 -7.113962e-05 2.805486e+00
1.759000e+00 1.000000e+00 7.040459e-05 -7.040459e-05 2.805631e+00
1.760000e+00 1.000000e+00 6.966807e-05 -6.966807e-05 2.805775e+00
1.761000e+00 1.000000e+00 6.893004e-05 -6.893004e-05 2.805920e+00
1.762000e+00 1.000000e+00 6.819051e-05 -6.819051e-05 2.806065e+00
1.763000e+00 1.000000e+00 6.744950e-05 -6.744950e-05 2.806210e+00
1.764000e+00 1.000000e+00 6.670699e-05 -6.670699e-05 2.806355e+00
1.765000e+00 1.000000e+00 6.596300e-05 -6.596300e-05 2.806500e+00
1.766000e+00 1.000000e+00 6.521753e-05 -6.521753e-05 2.806645e+00
1.767000e+00 1.000000e+00 -2.824082e-05 2.824082e-05 2.808578e+00
1.768000e+00 1.000000e+00 -2.894560e-05 2.894560e-05 2.808727e+00
1.769000e+00 1.000000e+00 -2.964809e-05 2.964809e-05 2.808876e+00
1.770000e+00 1.000000e+00 -3.034828e-05 3.034828e-05 2.809024e+00
1.771000e+00 1.000000e+00 -3.104618e-05 3.104618e-05 2.809173e+00
1.772000e+00 1.000000e+00 -3.174179e-05 3.174179e-05 2.809322e+00
1.773000e+00 1.000000e+00 -3.243511e-05 3.243511e-05 2.809471e+00
1.774000e+00 1.000000e+00 -3.312614e-05 3.312614e-05 2.809620e+00
1.775000e+00 1.000000e+00 -3.381488e-05 3.381488e-05 2.809769e+00
1.776000e+00 1.000000e+00 -3.450133e-05 3.450133e-05 2.809918e+00
1.777000e+00 1.000000e+00 -3.518549e-05 3.518549e-05 2.810067e+00
1.778000e+00 1.000000e+00 -3.586736e-05 3.586736e-05 2.810216e+00
1.779000e+00 1.000000e+00 -3.654694e-05 3.654694e-05 2.810365e+00
1.780000e+00 1.000000e+00 -3.722424e-05 3.722424e-05 2.810514e+00
1.781000e+00 1.000000e+00 -3.789924e-05 3.789924e-05 2.810663e+00
1.782000e+00 1.000000e+00 -3.857196e-05 3.857196e-05 2.810812e+00
1.783000e+00 1.000000e+00 -3.924240e-05 3.924240e-05 2.810961e+00
1.784000e+00 1.000000e+00 -3.991054e-05 3.991054e-05 2.811110e+00
1.785000e+00 1.000000e+00 -4.057640e-05 4.057640e-05 2.811259e+00
1.786000e+00 1.000000e+00 -4.123998e-05 4.123998e-05 2.811408e+00
1.787000e+00 1.000000e+00 -4.190127e-05 4.190127e-05 2.811557e+00
1.788000e+00 1.000000e+00 -4.256027e-05 4.256027e-05 2.811706e+00
1.789000e+00 1.000000e+00 -4.321700e-05 4.321700e-05 2.811855e+00
1.790000e+00 1.000000e+00 -4.387144e-05 4.387144e-05 2.812004e+00
1.791000e+00 1.000000e+00 -4.452359e-05 4.452359e-05 2.812153e+00
1.792000e+00 1.000000e+00 -4.517346e-05 4.517346e-05 2.812302e+00
1.793000e+00 1.000000e+00 -4.582106e-05 4.582106e-05 2.812451e+00
1.794000e+00 1.000000e+00 -4.646637e-05 4.646637e-05 2.812600e+00
1.795000e+00 1.000000e+00 -4.710939e-05 4.710939e-05 2.812749e+00
1.796000e+00 1.000000e+00 -4.775014e-05 4.775014e-05 2.812898e+00
1.797000e+00 1.000000e+00 -4.838861e-05 4.838861e-05 2.813047e+00
1.798000e+00 1.000000e+00 -4.902480e-05 4.902480e-05 2.813196e+00
1.799000e+00 1.000000e+00 -4.965871e-05 4.965871e-05 2.813345e+00
1.800000e+00 1.000000e+00 -5.029035e-05 5.029035e-05 2.813494e+00
1.801000e+00 1.000000e+00 -5.091970e-05 5.091970e-05 2.813643e+00
1.802000e+00 1.000000e+00 -5.154678e-05 5.154678e-05 2.813792e+00
1.803000e+00 1.000000e+00 -5.217158e-05 5.217158e-05 2.813941e+00
1.804000e+00 1.000000e+00 -5.279410e-05 5.279410e-05 2.814089e+00
1.805000e+00 1.000000e+00 -5.341435e-05 5.341435e-05 2.814238e+00
1.806000e+00 1.000000e+00 -5.403233e-05 5.403233e-05 2.814387e+00
1.807000e+00 1.000000e+00 -5.464803e-05 5.464803e-05 2.814536e+00
1.808000e+00 1.000000e+00 -5.526145e-05 5.526145e-05 2.814685e+00
1.809000e+00 1.000000e+00 -5.587261e-05 5.587261e-05 2.814834e+00
1.810000e+00 1.000000e+00 -5.648149e-05 5.648149e-05 2.814983e+00
1.811000e+00 1.000000e+00 -5.708809e-05 5.708809e-05 2.815132e+00
1.812000e+00 1.000000e+00 -5.769243e-05 5.769243e-05 2.815281e+00
1.813000e+00 1.000000e+00 -5.829450e-05 5.829450e-05 2.815430e+00
1.814000e+00 1.000000e+00 -5.889429e-05 5.889429e-05 2.815579e+00
1.815000e+00 1.000000e+00 -5.949181e-05 5.949181e-05 2.815728e+00
1.816000e+00 1.000000e+00 -6.008707e-05 6.008707e-05 2.815876e+00
1.817000e+00 1.000000e+00 -6.068006e-05 6.068006e-05 2.816025e+00
1.818000e+00 1.000000e+00 -6.127077e-05 6.127077e-05 2.816174e+00
1.819000e+00 1.000000e+00 -6.185923e-05 6.185923e-05 2.816323e+00
1.820000e+00 1.000000e+00 -6.244541e-05 6.244541e-05 2.816472e+00
1.821000e+00 1.000000e+00 -6.302933e-05 6.302933e-05 2.816621e+00
1.822000e+00 1.000000e+00 -6.361098e-05 6.361098e-05 2.816770e+00
1.823000e+00 1.000000e+00 -6.419037e-05 6.419037e-05 2.816919e+00
1.824000e+00 1.000000e+00 -6.476749e-05 6.476749e-05 2.817067e+00
1.825000e+00 1.000000e+00 -6.534235e-05 6.534235e-05 2.817216e+00
1.826000e+00 1.000000e+00 -6.591494e-05 6.591494e-05 2.817365e+00
1.827000e+00 1.000000e+00 -6.648527e-05 6.648527e-05 2.817514e+00
1.828000e+00 1.000000e+00 -6.705334e-05 6.705334e-05 2.817663e+00
1.829000e+00 1.000000e+00 -6.761915e-05 6.761915e-05 2.817812e+00
1.830000e+00 1.000000e+00 -6.818270e-05 6.818270e-05 2.817961e+00
1.831000e+00 1.000000e+00 -6.874399e-05 6.874399e-05 2.818109e+00
1.832000e+00 1.000000e+00 -6.930301e-05 6.930301e-05 2.818258e+00
1.833000e+00 1.000000e+00 -6.985978e-05 6.985978e-05 2.818407e+00
1.834000e+00 1.000000e+00 -7.041429e-05 7.041429e-05 2.818556e+00
1.835000e+00 1.000000e+00 -7.096654e-05 7.096654e-05 2.818705e+00
1.836000e+00 1.000000e+00 -7.151654e-05 7.151654e-05 2.818854e+00
1.837000e+00 1.000000e+00 -7.206428e-05 7.206428e-05 2.819002e+00
1.838000e+00 1.000000e+00 -7.260976e-05 7.260976e-05 2.819151e+00
1.839000e+00 1.000000e+00 -7.315299e-05 7.315299e-05 2.819300e+00
1.840000e+00 1.000000e+00 -7.369396e-05 7.369396e-05 2.819449e+00
1.841000e+00 1.000000e+00 -7.423268e-05 7.423268e-05 2.819598e+00
1.842000e+00 1.000000e+00 -7.476915e-05 7.476915e-05 2.819746e+00
1.843000e+00 1.000000e+00 -7.530336e-05 7.530336e-05 2.819895e+00
1.844000e+00 1.000000e+00 -7.583532e-05 7.583532e-05 2.820044e+00
1.845000e+00 1.000000e+00 -7.636503e-05 7.636503e-05 2.820193e+00
1.846000e+00 1.000000e+00 -7.689249e-05 7.689249e-05 2.820341e+00
1.847000e+00 1.000000e+00 -7.741770e-05 7.741770e-05 2.820490e+00
1.848000e+00 1.000000e+00 -7.794066e-05 7.794066e-05 2.820639e+00
1.849000e+00 1.000000e+00 -7.846137e-05 7.846137e-05 2.820788e+00
1.850000e+00 1.000000e+00 -7.897984e-05 7.897984e-05 2.820936e+00
1.851000e+00 1.000000e+00 -7.949605e-05 7.949605e-05 2.821085e+00
1.852000e+00 1.000000e+00 -8.001002e-05 8.001002e-05 2.821234e+00
1.853000e+00 1.000000e+00 -8.052175e-05 8.052175e-05 2.821383e+00
1.854000e+00 1.000000e+00 -8.103122e-05 8.103122e-05 2.821531e+00
1.855000e+00 1.000000e+00 -8.153846e-05 8.153846e-05 2.821680e+00
1.856000e+00 1.000000e+00 -8.204345e-05 8.204345e-05 2.821829e+00
1.857000e+00 1.000000e+00 -8.254619e-05 8.254619e-05 2.821977e+00
1.858000e+00 1.000000e+00 -8.304669e-05 8.304669e-05 2.822126e+00
1.859000e+00 1.000000e+00 -8.354495e-05 8.354495e-05 2.822275e+00
1.860000e+00 1.000000e+00 -8.404097e-05 8.404097e-05 2.822423e+00
1.861000e+00 1.000000e+00 -8.453475e-05 8.453475e-05 2.822572e+00
1.862000e+00 1.000000e+00 -8.502629e-05 8.502629e-05 2.822721e+00
1.863000e+00 1.000000e+00 -8.551559e-05 8.551559e-05 2.822869e+00
1.864000e+00 1.000000e+00 -8.600265e-05 8.600265e-05 2.823018e+00
1.865000e+00 1.000000e+00 -8.648747e-05 8.648747e-05 2.823167e+00
1.866000e+00 1.000000e+00 -8.697005e-05 8.697005e-05 2.823315e+00
1.867000e+00 1.000000e+00 -8.745040e-05 8.745040e-05 2.823464e+00
1.868000e+00 1.000000e+00 -8.792851e-05 8.792851e-05 2.823612e+00
1.869000e+00 1.000000e+00 -8.840439e-05 8.840439e-05 2.823761e+00
1.870000e+00 1.000000e+00 -8.887803e-05 8.887803e-05 2.823910e+00
1.871000e+00 1.000000e+00 -8.934944e-05 8.934944e-05 2.824058e+00
1.872000e+00 1.000000e+00 -8.981861e-05 8.981861e-05 2.824207e+00
1.873000e+00 1.000000e+00 -9.028555e-05 9.028555e-05 2.824355e+00
1.874000e+00 1.000000e+00 -9.075026e-05 9.075026e-05 2.824504e+00
1.875000e+00 1.000000e+00 -9.121274e-05 9.121274e-05 2.824653e+00
1.876000e+00 1.000000e+00 -9.167299e-05 9.167299e-05 2.824801e+00
1.877000e+00 1.000000e+00 -9.213101e-05 9.213101e-05 2.824950e+00
1.878000e+00 1.000000e+00 -9.258679e-05 9.258679e-05 2.825098e+00
1.879000e+00 1.000000e+00 -9.304035e-05 9.304035e-05 2.825247e+00
1.880000e+00 1.000000e+00 -9.349169e-05 9.349169e-05 2.825395e+00
1.881000e+00 1.000000e+00 -9.394079e-05 9.394079e-05 2.825544e+00
1.882000e+00 1.000000e+00 -9.438767e-05 9.438767e-05 2.825692e+00
1.883000e+00 1.000000e+00 -9.483232e-05 9.483232e-05 2.825841e+00
1.884000e+00 1.000000e+00 -9.527475e-05 9.527475e-05 2.825989e+00
1.885000e+00 1.000000e+00 -9.571495e-05 9.571495e-05 2.826138e+00
1.886000e+00 1.000000e+00 -9.615293e-05 9.615293e-05 2.826286e+00
1.887000e+00 1.000000e+00 -9.658869e-05 9.658869e-05 2.826435e+00
1.888000e+00 1.000000e+00 -9.702222e-05 9.702222e-05 2.826583e+00
1.889000e+00 1.000000e+00 -9.745353e-05 9.745353e-05 2.826732e+00
1.890000e+00 1.000000e+00 -9.788262e-05 9.788262e-05 2.826880e+00
1.891000e+00 1.000000e+00 -9.830949e-05 9.830949e-05 2.827029e+00
1.892000e+00 1.000000e+00 -9.873414e-05 9.873414e-05 2.827177e+00
1.893000e+00 1.000000e+00 -9.915657e-05 9.915657e-05 2.827325e+00
1.894000e+00 1.000000e+00 -9.957679e-05 9.957679e-05 2.827474e+00
1.895000e+00 1.000000e+00 -9.999478e-05 9.999478e-05 2.827622e+00
1.896000e+00 1.000000e+00 -1.004106e-04 1.004106e-04 2.827771e+00
1.897000e+00 1.000000e+00 -1.008241e-04 1.008241e-04 2.827919e+00
1.898000e+00 1.000000e+00 -1.012355e-04 1.012355e-04 2.828067e+00
1.899000e+00 1.000000e+00 -1.016446e-04 1.016446e-04 2.828216e+00
1.900000e+00 1.000000e+00 -1.020515e-04 1.020515e-04 2.828364e+00
1.901000e+00 1.000000e+00 -1.024562e-04 1.024562e-04 2.828513e+00
1.902000e+00 1.000000e+00 -1.028587e-04 1.028587e-04 2.828661e+00
1.903000e+00 1.000000e+00 -1.032590e-04 1.032590e-04 2.828809e+00
1.904000e+00 1.000000e+00 -1.036571e-04 1.036571e-04 2.828958e+00
1.905000e+00 1.000000e+00 -1.040529e-04 1.040529e-04 2.829106e+00
1.906000e+00 1.000000e+00 -1.044466e-04 1.044466e-04 2.829254e+00
1.907000e+00 1.000000e+00 -1.048380e-04 1.048380e-04 2.829402e+00
1.908000e+00 1.000000e+00 -1.052272e-04 1.052272e-04 2.829551e+00
1.909000e+00 1.000000e+00 -1.056142e-04 1.056142e-04 2.829699e+00
1.910000e+00 1.000000e+00 -1.059991e-04 1.059991e-04 2.829847e+00
1.911000e+00 1.000000e+00 -1.063817e-04 1.063817e-04 2.829996e+00
1.912000e+00 1.000000e+00 -1.067621e-04 1.067621e-04 2.830144e+00
1.913000e+00 1.000000e+00 -1.071403e-04 1.071403e-04 2.830292e+00
1.914000e+00 1.000000e+00 -1.075162e-04 1.075162e-04 2.830440e+00
1.915000e+00 1.000000e+00 -1.078900e-04 1.078900e-04 2.830588e+00
1.916000e+00 1.000000e+00 -1.082616e-04 1.082616e-04 2.830737e+00
1.917000e+00 1.000000e+00 -1.086310e-04 1.086310e-04 2.830885e+00
1.918000e+00 1.000000e+00 -1.089982e-04 1.089982e-04 2.831033e+00
1.919000e+00 1.000000e+00 -1.093631e-04 1.093631e-04 2.831181e+00
1.920000e+00 1.000000e+00 -1.097259e-04 1.097259e-04 2.831329e+00
1.921000e+00 1.000000e+00 -1.100865e-04 1.100865e-04 2.831478e+00
1.922000e+00 1.000000e+00 -1.104449e-04 1.104449e-04 2.831626e+00
1.923000e+00 1.000000e+00 -1.108011e-04 1.108011e-04 2.831774e+00
1.924000e+00 1.000000e+00 -1.111550e-04 1.111550e-04 2.831922e+00
1.925000e+00 1.000000e+00 -1.115068e-04 1.115068e-04 2.832070e+00
1.926000e+00 1.000000e+00 -1.118564e-04 1.118564e-04 2.832218e+00
1.927000e+00 1.000000e+00 -1.122038e-04 1.122038e-04 2.832366e+00
1.928000e+00 1.000000e+00 -1.125490e-04 1.125490e-04 2.832514e+00
1.929000e+00 1.000000e+00 -1.128920e-04 1.128920e-04 2.832662e+00
1.930000e+00 1.000000e+00 -1.132328e-04 1.132328e-04 2.832811e+00
1.931000e+00 1.000000e+00 -1.135714e-04 1.135714e-04 2.832959e+00
1.932000e+00 1.000000e+00 -1.139078e-04 1.139078e-04 2.833107e+00
1.933000e+00 1.000000e+00 -1.142421e-04 1.142421e-04 2.833255e+00
1.934000e+00 1.000000e+00 -1.145741e-04 1.145741e-04 2.833403e+00
1.935000e+00 1.000000e+00 -1.149039e-04 1.149039e-04 2.833551e+00
1.936000e+00 1.000000e+00 -1.152316e-04 1.152316e-04 2.833699e+00
1.937000e+00 1.000000e+00 -1.155571e-04 1.155571e-04 2.833847e+00
1.938000e+00 1.000000e+00 -1.158803e-04 1.158803e-04 2.833995e+00
1.939000e+00 1.000000e+00 -1.162014e-04 1.162014e-04 2.834143e+00
1.940000e+00 1.000000e+00 -1.165203e-04 1.165203e-04 2.834291e+00
1.941000e+00 1.000000e+00 -1.168370e-04 1.168370e-04 2.834438e+00
1.942000e+00 1.000000e+00 -1.171516e-04 1.171516e-04 2.834586e+00
1.943000e+00 1.000000e+00 -1.174639e-04 1.174639e-04 2.834734e+00
1.944000e+00 1.000000e+00 -1.177741e-04 1.177741e-04 2.834882e+00
1.945000e+00 1.000000e+00 -1.180820e-04 1.180820e-04 2.835030e+00
1.946000e+00 1.000000e+00 -1.183878e-04 1.183878e-04 2.835178e+00
1.947000e+00 1.000000e+00 -1.186914e-04 1.186914e-04 2.835326e+00
1.948000e+00 1.000000e+00 -1.189929e-04 1.189929e-04 2.835474e+00
1.949000e+00 1.000000e+00 -1.192921e-04 1.192921e-04 2.835622e+00
1.950000e+00 1.000000e+00 -1.195892e-04 1.195892e-04 2.835769e+00
1.951000e+00 1.000000e+00 -1.198841e-04 1.198841e-04 2.835917e+00
1.952000e+00 1.000000e+00 -1.201768e-04 1.201768e-04 2.836065e+00
1.953000e+00 1.000000e+00 -1.204673e-04 1.204673e-04 2.836213e+00
1.954000e+00 1.000000e+00 -1.207556e-04 1.207556e-04 2.836361e+00
1.955000e+00 1.000000e+00 -1.210418e-04 1.210418e-04 2.836508e+00
1.956000e+00 1.000000e+00 -1.213258e-04 1.213258e-04 2.836656e+00
1.957000e+00 1.000000e+00 -1.216076e-04 1.216076e-04 2.836804e+00
1.958000e+00 1.000000e+00 -1.218873e-04 1.218873e-04 2.836952e+00
1.959000e+00 1.000000e+00 -1.221647e-04 1.221647e-04 2.837099e+00
1.960000e+00 1.000000e+00 -1.224400e-04 1.224400e-04 2.837247e+00
1.961000e+00 1.000000e+00 -1.227131e-04 1.227131e-04 2.837395e+00
1.962000e+00 1.000000e+00 -1.229841e-04 1.229841e-04 2.837542e+00
1.963000e+00 1.000000e+00 -1.232528e-04 1.232528e-04 2.837690e+00
1.964000e+00 1.000000e+00 -1.235194e-04 1.235194e-04 2.837838e+00
1.965000e+00 1.000000e+00 -1.237839e-04 1.237839e-04 2.837985e+00
1.966000e+00 1.000000e+00 -1.240461e-04 1.240461e-04 2.838133e+00
1.967000e+00 1.000000e+00 -1.243062e-04 1.243062e-04 2.838281e+00
1.968000e+00 1.000000e+00 -1.245641e-04 1.245641e-04 2.838428e+00
1.969000e+00 1.000000e+00 -1.248199e-04 1.248199e-04 2.838576e+00
1.970000e+00 1.000000e+00 -1.250734e-04 1.250734e-04 2.838723e+00
1.971000e+00 1.000000e+00 -1.253248e-04 1.253248e-04 2.838871e+00
1.972000e+00 1.000000e+00 -1.255741e-04 1.255741e-04 2.839019e+00
1.973000e+00 1.000000e+00 -1.258212e-04 1.258212e-04 2.839166e+00
1.974000e+00 1.000000e+00 -1.260661e-04 1.260661e-04 2.839314e+00
1.975000e+00 1.000000e+00 -1.263088e-04 1.263088e-04 2.839461e+00
1.976000e+00 1.000000e+00 -1.265494e-04 1.265494e-04 2.839609e+00
1.977000e+00 1.000000e+00 -1.267878e-04 1.267878e-04 2.839756e+00
1.978000e+00 1.000000e+00 -1.270241e-04 1.270241e-04 2.839904e+00
1.979000e+00 1.000000e+00 -1.272581e-04 1.272581e-04 2.840051e+00
1.980000e+00 1.000000e+00 -1.274901e-04 1.274901e-04 2.840199e+00
1.981000e+00 1.000000e+00 -1.277198e-04 1.277198e-04 2.840346e+00
1.982000e+00 1.000000e+00 -1.279474e-04 1.279474e-04 2.840493e+00
1.983000e+00 1.000000e+00 -1.281729e-04 1.281729e-04 2.840641e+00
1.984000e+00 1.000000e+00 -1.283962e-04 1.283962e-04 2.840788e+00
1.985000e+00 1.000000e+00 -1.286173e-04 1.286173e-04 2.840936e+00
1.986000e+00 1.000000e+00 -1.288363e-04 1.288363e-04 2.841083e+00
1.987000e+00 1.000000e+00 -1.290531e-04 1.290531e-04 2.841230e+00
1.988000e+00 1.000000e+00 -1.292677e-04 1.292677e-04 2.841378e+00
1.989000e+00 1.000000e+00 -1.294802e-04 1.294802e-04 2.841525e+00
1.990000e+00 1.000000e+00 -1.296905e-04 1.296905e-04 2.841672e+00
1.991000e+00 1.000000e+00 -1.298987e-04 1.298987e-04 2.841820e+00
1.992000e+00 1.000000e+00 -1.301047e-04 1.301047e-04 2.841967e+00
1.993000e+00 1.000000e+00 -1.303086e-04 1.303086e-04 2.842114e+00
1.994000e+00 1.000000e+00 -1.305103e-04 1.305103e-04 2.842261e+00
1.995000e+00 1.000000e+00 -1.307099e-04 1.307099e-04 2.842409e+00
1.996000e+00 1.000000e+00 -1.309073e-04 1.309073e-04 2.842556e+00
1.997000e+00 1.000000e+00 -1.311026e-04 1.311026e-04 2.842703e+00
1.998000e+00 1.000000e+00 -1.312957e-04 1.312957e-04 2.842850e+00
1.999000e+00 1.000000e+00 -1.314866e-04 1.314866e-04 2.842997e+00
