t dvol s11 s22 s12
0.000000e+00 -2.068081e-01 1.332020e-04 -1.332020e-04 2.311623e+00
1.000000e-03 -2.084451e-01 -1.296693e-04 1.296693e-04 2.311376e+00
2.000000e-03 -2.099422e-01 -2.330024e-04 2.330024e-04 2.311209e+00
3.000000e-03 -2.114332e-01 -2.786034e-04 2.786034e-04 2.311100e+00
4.000000e-03 -2.129849e-01 -3.144939e-04 3.144939e-04 2.311030e+00
5.000000e-03 -2.146233e-01 -3.574302e-04 3.574302e-04 2.310986e+00
6.000000e-03 -2.163516e-01 -4.080497e-04 4.080497e-04 2.310959e+00
7.000000e-03 -2.181608e-01 -4.600669e-04 4.600669e-04 2.310941e+00
8.000000e-03 -2.200365e-01 -5.054270e-04 5.054270e-04 2.310925e+00
9.000000e-03 -2.219620e-01 -5.369320e-04 5.369320e-04 2.310908e+00
1.000000e-02 -2.239212e-01 -5.493669e-04 5.493669e-04 2.310885e+00
1.100000e-02 -2.258992e-01 -5.397784e-04 5.397784e-04 2.310855e+00
1.200000e-02 -2.278827e-01 -5.073039e-04 5.073039e-04 2.310815e+00
1.300000e-02 -2.298603e-01 -4.527901e-04 4.527901e-04 2.310765e+00
1.400000e-02 -2.318226e-01 -3.783382e-04 3.783382e-04 2.310704e+00
1.500000e-02 -2.337619e-01 -2.868571e-04 2.868571e-04 2.310633e+00
1.600000e-02 -2.356717e-01 -1.816677e-04 1.816677e-04 2.310551e+00
1.700000e-02 -2.375475e-01 -6.618074e-05 6.618074e-05 2.310460e+00
1.800000e-02 -2.393854e-01 5.634597e-05 -5.634597e-05 2.310362e+00
1.900000e-02 -2.411829e-01 1.829708e-04 -1.829708e-04 2.310256e+00
2.000000e-02 -2.429383e-01 3.111616e-04 -3.111616e-04 2.310144e+00
2.100000e-02 -2.529368e-01 1.164203e-03 -1.164203e-03 2.306365e+00
2.200000e-02 -2.556367e-01 2.086410e-03 -2.086410e-03 2.305984e+00
2.300000e-02 -2.575455e-01 1.548640e-03 -1.548640e-03 2.305660e+00
2.400000e-02 -2.591556e-01 9.542360e-04 -9.542360e-04 2.305424e+00
2.500000e-02 -2.606057e-01 4.410824e-04 -4.410824e-04 2.305246e+00
2.600000e-02 -2.619540e-01 -1.895706e-05 1.895706e-05 2.305101e+00
2.700000e-02 -2.632339e-01 -4.500129e-04 4.500129e-04 2.304976e+00
2.800000e-02 -2.644675e-01 -8.605186e-04 8.605186e-04 2.304857e+00
2.900000e-02 -2.656695e-01 -1.249387e-03 1.249387e-03 2.304736e+00
3.000000e-02 -2.668506e-01 -1.610887e-03 1.610887e-03 2.304606e+00
3.100000e-02 -2.680182e-01 -1.937454e-03 1.937454e-03 2.304462e+00
3.200000e-02 -2.691776e-01 -2.221281e-03 2.221281e-03 2.304301e+00
3.300000e-02 -2.703327e-01 -2.455275e-03 2.455275e-03 2.304121e+00
3.400000e-02 -2.714862e-01 -2.633628e-03 2.633628e-03 2.303922e+00
3.500000e-02 -2.726397e-01 -2.752156e-03 2.752156e-03 2.303706e+00
3.600000e-02 -2.737943e-01 -2.808457e-03 2.808457e-03 2.303475e+00
3.700000e-02 -2.749503e-01 -2.801943e-03 2.801943e-03 2.303232e+00
3.800000e-02 -2.761075e-01 -2.733764e-03 2.733764e-03 2.302980e+00
3.900000e-02 -2.772655e-01 -2.606642e-03 2.606642e-03 2.302723e+00
4.000000e-02 -2.784231e-01 -2.424653e-03 2.424653e-03 2.302464e+00
4.100000e-02 -2.806880e-01 -5.998112e-03 5.998112e-03 2.291609e+00
4.200000e-02 -2.829383e-01 -5.943482e-03 5.943482e-03 2.291445e+00
4.300000e-02 -2.847596e-01 -5.469868e-03 5.469868e-03 2.291323e+00
4.400000e-02 -2.863108e-01 -4.844674e-03 4.844674e-03 2.291244e+00
4.500000e-02 -2.876841e-01 -4.192879e-03 4.192879e-03 2.291200e+00
4.600000e-02 -2.889343e-01 -3.568116e-03 3.568116e-03 2.291185e+00
4.700000e-02 -2.900955e-01 -2.990124e-03 2.990124e-03 2.291188e+00
4.800000e-02 -2.911895e-01 -2.463354e-03 2.463354e-03 2.291205e+00
4.900000e-02 -2.922311e-01 -1.985916e-03 1.985916e-03 2.291231e+00
5.000000e-02 -2.932307e-01 -1.553737e-03 1.553737e-03 2.291261e+00
5.100000e-02 -2.941958e-01 -1.162383e-03 1.162383e-03 2.291294e+00
5.200000e-02 -2.951321e-01 -8.077615e-04 8.077615e-04 2.291327e+00
5.300000e-02 -2.960440e-01 -4.862931e-04 4.862931e-04 2.291360e+00
5.400000e-02 -2.969346e-01 -1.948700e-04 1.948700e-04 2.291392e+00
5.500000e-02 -2.978067e-01 6.926709e-05 -6.926709e-05 2.291421e+00
5.600000e-02 -2.986624e-01 3.086533e-04 -3.086533e-04 2.291447e+00
5.700000e-02 -2.995031e-01 5.256989e-04 -5.256989e-04 2.291470e+00
5.800000e-02 -3.003301e-01 7.227522e-04 -7.227522e-04 2.291489e+00
5.900000e-02 -3.011445e-01 9.021287e-04 -9.021287e-04 2.291504e+00
6.000000e-02 -3.019468e-01 1.066112e-03 -1.066112e-03 2.291514e+00
6.100000e-02 -3.027377e-01 1.216935e-03 -1.216935e-03 2.291518e+00
6.200000e-02 -3.035173e-01 1.356751e-03 -1.356751e-03 2.291517e+00
6.300000e-02 -3.042860e-01 1.487592e-03 -1.487592e-03 2.291510e+00
6.400000e-02 -3.050439e-01 1.611344e-03 -1.611344e-03 2.291497e+00
6.500000e-02 -3.057911e-01 1.729708e-03 -1.729708e-03 2.291478e+00
6.600000e-02 -3.065275e-01 1.844183e-03 -1.844183e-03 2.291453e+00
6.700000e-02 -3.072531e-01 1.956046e-03 -1.956046e-03 2.291422e+00
6.800000e-02 -3.079679e-01 2.066353e-03 -2.066353e-03 2.291385e+00
6.900000e-02 -3.086719e-01 2.175935e-03 -2.175935e-03 2.291341e+00
7.000000e-02 -3.093649e-01 2.285413e-03 -2.285413e-03 2.291292e+00
7.100000e-02 -3.099800e-01 -2.520172e-03 2.520172e-03 2.299699e+00
7.200000e-02 -3.115549e-01 -2.043988e-03 2.043988e-03 2.299752e+00
7.300000e-02 -3.126779e-01 -1.758970e-03 1.758970e-03 2.299756e+00
7.400000e-02 -3.135889e-01 -1.615649e-03 1.615649e-03 2.299736e+00
7.500000e-02 -3.143872e-01 -1.554864e-03 1.554864e-03 2.299701e+00
7.600000e-02 -3.151170e-01 -1.541036e-03 1.541036e-03 2.299656e+00
7.700000e-02 -3.158000e-01 -1.555026e-03 1.555026e-03 2.299603e+00
7.800000e-02 -3.164475e-01 -1.586549e-03 1.586549e-03 2.299545e+00
7.900000e-02 -3.170662e-01 -1.629870e-03 1.629870e-03 2.299485e+00
8.000000e-02 -3.176605e-01 -1.681611e-03 1.681611e-03 2.299422e+00
8.100000e-02 -3.182332e-01 -1.739640e-03 1.739640e-03 2.299360e+00
8.200000e-02 -3.187866e-01 -1.802502e-03 1.802502e-03 2.299298e+00
8.300000e-02 -3.193225e-01 -1.869101e-03 1.869101e-03 2.299238e+00
8.400000e-02 -3.198424e-01 -1.938543e-03 1.938543e-03 2.299180e+00
8.500000e-02 -3.203475e-01 -2.010041e-03 2.010041e-03 2.299124e+00
8.600000e-02 -3.208388e-01 -2.082869e-03 2.082869e-03 2.299072e+00
8.700000e-02 -3.213174e-01 -2.156342e-03 2.156342e-03 2.299024e+00
8.800000e-02 -3.217840e-01 -2.229803e-03 2.229803e-03 2.298979e+00
8.900000e-02 -3.222394e-01 -2.302626e-03 2.302626e-03 2.298938e+00
9.000000e-02 -3.226844e-01 -2.374214e-03 2.374214e-03 2.298900e+00
9.100000e-02 -3.231195e-01 -2.444009e-03 2.444009e-03 2.298866e+00
9.200000e-02 -3.235453e-01 -2.511492e-03 2.511492e-03 2.298836e+00
9.300000e-02 -3.239622e-01 -2.576191e-03 2.576191e-03 2.298810e+00
9.400000e-02 -3.243707e-01 -2.637680e-03 2.637680e-03 2.298787e+00
9.500000e-02 -3.247713e-01 -2.695585e-03 2.695585e-03 2.298768e+00
9.600000e-02 -3.251643e-01 -2.749582e-03 2.749582e-03 2.298751e+00
9.700000e-02 -3.255499e-01 -2.799402e-03 2.799402e-03 2.298738e+00
9.800000e-02 -3.259286e-01 -2.844824e-03 2.844824e-03 2.298727e+00
9.900000e-02 -3.263005e-01 -2.885678e-03 2.885678e-03 2.298719e+00
1.000000e-01 -3.266660e-01 -2.921842e-03 2.921842e-03 2.298713e+00
1.010000e-01 -3.270251e-01 -2.953237e-03 2.953237e-03 2.298710e+00
1.020000e-01 -3.273782e-01 -2.979826e-03 2.979826e-03 2.298708e+00
1.030000e-01 -3.277254e-01 -3.001610e-03 3.001610e-03 2.298708e+00
1.040000e-01 -3.280667e-01 -3.018624e-03 3.018624e-03 2.298709e+00
1.050000e-01 -3.284025e-01 -3.030934e-03 3.030934e-03 2.298711e+00
1.060000e-01 -3.287327e-01 -3.038633e-03 3.038633e-03 2.298715e+00
1.070000e-01 -3.290575e-01 -3.041837e-03 3.041837e-03 2.298719e+00
1.080000e-01 -3.293770e-01 -3.040683e-03 3.040683e-03 2.298723e+00
1.090000e-01 -3.296913e-01 -3.035325e-03 3.035325e-03 2.298728e+00
1.100000e-01 -3.300004e-01 -3.025931e-03 3.025931e-03 2.298734e+00
1.110000e-01 -3.303044e-01 -3.012682e-03 3.012682e-03 2.298739e+00
1.120000e-01 -3.306035e-01 -2.995766e-03 2.995766e-03 2.298744e+00
1.130000e-01 -3.308976e-01 -2.975379e-03 2.975379e-03 2.298748e+00
1.140000e-01 -3.311868e-01 -2.951721e-03 2.951721e-03 2.298752e+00
1.150000e-01 -3.314711e-01 -2.924996e-03 2.924996e-03 2.298756e+00
1.160000e-01 -3.309988e-01 1.596855e-03 -1.596855e-03 2.290668e+00
1.170000e-01 -3.316868e-01 1.457632e-03 -1.457632e-03 2.290735e+00
1.180000e-01 -3.322551e-01 1.405072e-03 -1.405072e-03 2.290788e+00
1.190000e-01 -3.327411e-01 1.410145e-03 -1.410145e-03 2.290828e+00
1.200000e-01 -3.331693e-01 1.451973e-03 -1.451973e-03 2.290855e+00
1.210000e-01 -3.335559e-01 1.516381e-03 -1.516381e-03 2.290873e+00
1.220000e-01 -3.339120e-01 1.594051e-03 -1.594051e-03 2.290883e+00
1.230000e-01 -3.342449e-01 1.678969e-03 -1.678969e-03 2.290886e+00
1.240000e-01 -3.345597e-01 1.767288e-03 -1.767288e-03 2.290883e+00
1.250000e-01 -3.348600e-01 1.856558e-03 -1.856558e-03 2.290877e+00
1.260000e-01 -3.351483e-01 1.945213e-03 -1.945213e-03 2.290866e+00
1.270000e-01 -3.354262e-01 2.032253e-03 -2.032253e-03 2.290854e+00
1.280000e-01 -3.356951e-01 2.117034e-03 -2.117034e-03 2.290839e+00
1.290000e-01 -3.359558e-01 2.199147e-03 -2.199147e-03 2.290822e+00
1.300000e-01 -3.362091e-01 2.278334e-03 -2.278334e-03 2.290805e+00
1.310000e-01 -3.364555e-01 2.354444e-03 -2.354444e-03 2.290787e+00
1.320000e-01 -3.366954e-01 2.427398e-03 -2.427398e-03 2.290768e+00
1.330000e-01 -3.369290e-01 2.497172e-03 -2.497172e-03 2.290749e+00
1.340000e-01 -3.371567e-01 2.563785e-03 -2.563785e-03 2.290730e+00
1.350000e-01 -3.373787e-01 2.627285e-03 -2.627285e-03 2.290712e+00
1.360000e-01 -3.375952e-01 2.687745e-03 -2.687745e-03 2.290693e+00
1.370000e-01 -3.378064e-01 2.745260e-03 -2.745260e-03 2.290675e+00
1.380000e-01 -3.380124e-01 2.799937e-03 -2.799937e-03 2.290658e+00
1.390000e-01 -3.382133e-01 2.851896e-03 -2.851896e-03 2.290641e+00
1.400000e-01 -3.384094e-01 2.901265e-03 -2.901265e-03 2.290625e+00
1.410000e-01 -3.386006e-01 2.948178e-03 -2.948178e-03 2.290610e+00
1.420000e-01 -3.387872e-01 2.992772e-03 -2.992772e-03 2.290595e+00
1.430000e-01 -3.389692e-01 3.035187e-03 -3.035187e-03 2.290581e+00
1.440000e-01 -3.391468e-01 3.075559e-03 -3.075559e-03 2.290568e+00
1.450000e-01 -3.393200e-01 3.114027e-03 -3.114027e-03 2.290556e+00
1.460000e-01 -3.394889e-01 3.150724e-03 -3.150724e-03 2.290545e+00
1.470000e-01 -3.396536e-01 3.185781e-03 -3.185781e-03 2.290535e+00
1.480000e-01 -3.398142e-01 3.219324e-03 -3.219324e-03 2.290526e+00
1.490000e-01 -3.399708e-01 3.251474e-03 -3.251474e-03 2.290517e+00
1.500000e-01 -3.401234e-01 3.282348e-03 -3.282348e-03 2.290510e+00
1.510000e-01 -3.402721e-01 3.312055e-03 -3.312055e-03 2.290504e+00
1.520000e-01 -3.404170e-01 3.340700e-03 -3.340700e-03 2.290499e+00
1.530000e-01 -3.405581e-01 3.368382e-03 -3.368382e-03 2.290495e+00
1.540000e-01 -3.406955e-01 3.395193e-03 -3.395193e-03 2.290491e+00
1.550000e-01 -3.408293e-01 3.421220e-03 -3.421220e-03 2.290489e+00
1.560000e-01 -3.409595e-01 3.446544e-03 -3.446544e-03 2.290488e+00
1.570000e-01 -3.410862e-01 3.471241e-03 -3.471241e-03 2.290489e+00
1.580000e-01 -3.412093e-01 3.495380e-03 -3.495380e-03 2.290490e+00
1.590000e-01 -3.413290e-01 3.519026e-03 -3.519026e-03 2.290492e+00
1.600000e-01 -3.414453e-01 3.542237e-03 -3.542237e-03 2.290495e+00
1.610000e-01 -3.415582e-01 3.565069e-03 -3.565069e-03 2.290500e+00
1.620000e-01 -3.416679e-01 3.587571e-03 -3.587571e-03 2.290505e+00
1.630000e-01 -3.417742e-01 3.609788e-03 -3.609788e-03 2.290512e+00
1.640000e-01 -3.418773e-01 3.631761e-03 -3.631761e-03 2.290520e+00
1.650000e-01 -3.419772e-01 3.653527e-03 -3.653527e-03 2.290529e+00
1.660000e-01 -3.420739e-01 3.675120e-03 -3.675120e-03 2.290539e+00
1.670000e-01 -3.421675e-01 3.696568e-03 -3.696568e-03 2.290550e+00
1.680000e-01 -3.422580e-01 3.717899e-03 -3.717899e-03 2.290563e+00
1.690000e-01 -3.423454e-01 3.739135e-03 -3.739135e-03 2.290576e+00
1.700000e-01 -3.424297e-01 3.760296e-03 -3.760296e-03 2.290591e+00
1.710000e-01 -3.425111e-01 3.781400e-03 -3.781400e-03 2.290607e+00
1.720000e-01 -3.425894e-01 3.802461e-03 -3.802461e-03 2.290623e+00
1.730000e-01 -3.426648e-01 3.823492e-03 -3.823492e-03 2.290642e+00
1.740000e-01 -3.427373e-01 3.844504e-03 -3.844504e-03 2.290661e+00
1.750000e-01 -3.428068e-01 3.865504e-03 -3.865504e-03 2.290681e+00
1.760000e-01 -3.428735e-01 3.886498e-03 -3.886498e-03 2.290703e+00
1.770000e-01 -3.429373e-01 3.907492e-03 -3.907492e-03 2.290725e+00
1.780000e-01 -3.429982e-01 3.928488e-03 -3.928488e-03 2.290749e+00
1.790000e-01 -3.430564e-01 3.949488e-03 -3.949488e-03 2.290774e+00
1.800000e-01 -3.431117e-01 3.970491e-03 -3.970491e-03 2.290800e+00
1.810000e-01 -3.431643e-01 3.991498e-03 -3.991498e-03 2.290827e+00
1.820000e-01 -3.432141e-01 4.012505e-03 -4.012505e-03 2.290856e+00
1.830000e-01 -3.432612e-01 4.033510e-03 -4.033510e-03 2.290885e+00
1.840000e-01 -3.433055e-01 4.054509e-03 -4.054509e-03 2.290916e+00
1.850000e-01 -3.433472e-01 4.075496e-03 -4.075496e-03 2.290948e+00
1.860000e-01 -3.433862e-01 4.096466e-03 -4.096466e-03 2.290980e+00
1.870000e-01 -3.434226e-01 4.117414e-03 -4.117414e-03 2.291014e+00
1.880000e-01 -3.434563e-01 4.138332e-03 -4.138332e-03 2.291049e+00
1.890000e-01 -3.434874e-01 4.159214e-03 -4.159214e-03 2.291086e+00
1.900000e-01 -3.435159e-01 4.180051e-03 -4.180051e-03 2.291123e+00
1.910000e-01 -3.435418e-01 4.200836e-03 -4.200836e-03 2.291161e+00
1.920000e-01 -3.435651e-01 4.221562e-03 -4.221562e-03 2.291201e+00
1.930000e-01 -3.435859e-01 4.242218e-03 -4.242218e-03 2.291241e+00
1.940000e-01 -3.436041e-01 4.262799e-03 -4.262799e-03 2.291283e+00
1.950000e-01 -3.436198e-01 4.283293e-03 -4.283293e-03 2.291325e+00
1.960000e-01 -3.436330e-01 4.303694e-03 -4.303694e-03 2.291369e+00
1.970000e-01 -3.436438e-01 4.323993e-03 -4.323993e-03 2.291414e+00
1.980000e-01 -3.436520e-01 4.344180e-03 -4.344180e-03 2.291459e+00
1.990000e-01 -3.436578e-01 4.364248e-03 -4.364248e-03 2.291506e+00
2.000000e-01 -3.436611e-01 4.384188e-03 -4.384188e-03 2.291554e+00
2.010000e-01 -3.436620e-01 4.403992e-03 -4.403992e-03 2.291602e+00
2.020000e-01 -3.436604e-01 4.423652e-03 -4.423652e-03 2.291652e+00
2.030000e-01 -3.436565e-01 4.443160e-03 -4.443160e-03 2.291702e+00
2.040000e-01 -3.436501e-01 4.462509e-03 -4.462509e-03 2.291754e+00
2.050000e-01 -3.436414e-01 4.481691e-03 -4.481691e-03 2.291806e+00
2.060000e-01 -3.436302e-01 4.500698e-03 -4.500698e-03 2.291860e+00
2.070000e-01 -3.436168e-01 4.519525e-03 -4.519525e-03 2.291914e+00
2.080000e-01 -3.436009e-01 4.538164e-03 -4.538164e-03 2.291969e+00
2.090000e-01 -3.435827e-01 4.556609e-03 -4.556609e-03 2.292025e+00
2.100000e-01 -3.435622e-01 4.574854e-03 -4.574854e-03 2.292082e+00
2.110000e-01 -3.435394e-01 4.592894e-03 -4.592894e-03 2.292139e+00
2.120000e-01 -3.435142e-01 4.610723e-03 -4.610723e-03 2.292198e+00
2.130000e-01 -3.434868e-01 4.628337e-03 -4.628337e-03 2.292257e+00
2.140000e-01 -3.434570e-01 4.645730e-03 -4.645730e-03 2.292317e+00
2.150000e-01 -3.434250e-01 4.662899e-03 -4.662899e-03 2.292377e+00
2.160000e-01 -3.433907e-01 4.679838e-03 -4.679838e-03 2.292439e+00
2.170000e-01 -3.431315e-01 6.804325e-05 -6.804325e-05 2.298970e+00
2.180000e-01 -3.432885e-01 3.515555e-05 -3.515555e-05 2.299008e+00
2.190000e-01 -3.433984e-01 1.955079e-05 -1.955079e-05 2.299044e+00
2.200000e-01 -3.434729e-01 1.592242e-05 -1.592242e-05 2.299078e+00
2.210000e-01 -3.435205e-01 2.053838e-05 -2.053838e-05 2.299110e+00
2.220000e-01 -3.435473e-01 3.080259e-05 -3.080259e-05 2.299140e+00
2.230000e-01 -3.435577e-01 4.492750e-05 -4.492750e-05 2.299168e+00
2.240000e-01 -3.435552e-01 6.169420e-05 -6.169420e-05 2.299196e+00
2.250000e-01 -3.435420e-01 8.027956e-05 -8.027956e-05 2.299222e+00
2.260000e-01 -3.435202e-01 1.001330e-04 -1.001330e-04 2.299248e+00
2.270000e-01 -3.434910e-01 1.208900e-04 -1.208900e-04 2.299273e+00
2.280000e-01 -3.434556e-01 1.423114e-04 -1.423114e-04 2.299297e+00
2.290000e-01 -3.434146e-01 1.642414e-04 -1.642414e-04 2.299321e+00
2.300000e-01 -3.433688e-01 1.865795e-04 -1.865795e-04 2.299345e+00
2.310000e-01 -3.433187e-01 2.092608e-04 -2.092608e-04 2.299368e+00
2.320000e-01 -3.432646e-01 2.322427e-04 -2.322427e-04 2.299391e+00
2.330000e-01 -3.432069e-01 2.554968e-04 -2.554968e-04 2.299414e+00
2.340000e-01 -3.431458e-01 2.790032e-04 -2.790032e-04 2.299436e+00
2.350000e-01 -3.430815e-01 3.027465e-04 -3.027465e-04 2.299459e+00
2.360000e-01 -3.430142e-01 3.267142e-04 -3.267142e-04 2.299482e+00
2.370000e-01 -3.429440e-01 3.508948e-04 -3.508948e-04 2.299505e+00
2.380000e-01 -3.428710e-01 3.752775e-04 -3.752775e-04 2.299528e+00
2.390000e-01 -3.427954e-01 3.998512e-04 -3.998512e-04 2.299551e+00
2.400000e-01 -3.427173e-01 4.246050e-04 -4.246050e-04 2.299574e+00
2.410000e-01 -3.426366e-01 4.495278e-04 -4.495278e-04 2.299598e+00
2.420000e-01 -3.425535e-01 4.746081e-04 -4.746081e-04 2.299621e+00
2.430000e-01 -3.424680e-01 4.998347e-04 -4.998347e-04 2.299645e+00
2.440000e-01 -3.423801e-01 5.251960e-04 -5.251960e-04 2.299669e+00
2.450000e-01 -3.422899e-01 5.506808e-04 -5.506808e-04 2.299693e+00
2.460000e-01 -3.421974e-01 5.762779e-04 -5.762779e-04 2.299718e+00
2.470000e-01 -3.421027e-01 6.019761e-04 -6.019761e-04 2.299743e+00
2.480000e-01 -3.420057e-01 6.277647e-04 -6.277647e-04 2.299768e+00
2.490000e-01 -3.419065e-01 6.536331e-04 -6.536331e-04 2.299793e+00
2.500000e-01 -3.418051e-01 6.795713e-04 -6.795713e-04 2.299819e+00
2.510000e-01 -3.417016e-01 7.055691e-04 -7.055691e-04 2.299844e+00
2.520000e-01 -3.415959e-01 7.316171e-04 -7.316171e-04 2.299870e+00
2.530000e-01 -3.414880e-01 7.577060e-04 -7.577060e-04 2.299897e+00
2.540000e-01 -3.413780e-01 7.838268e-04 -7.838268e-04 2.299923e+00
2.550000e-01 -3.412659e-01 8.099710e-04 -8.099710e-04 2.299950e+00
2.560000e-01 -3.411516e-01 8.361304e-04 -8.361304e-04 2.299977e+00
2.570000e-01 -3.410353e-01 8.622969e-04 -8.622969e-04 2.300004e+00
2.580000e-01 -3.409168e-01 8.884630e-04 -8.884630e-04 2.300032e+00
2.590000e-01 -3.407962e-01 9.146213e-04 -9.146213e-04 2.300059e+00
2.600000e-01 -3.406736e-01 9.407649e-04 -9.407649e-04 2.300087e+00
2.610000e-01 -3.405489e-01 9.668868e-04 -9.668868e-04 2.300115e+00
2.620000e-01 -3.404221e-01 9.929808e-04 -9.929808e-04 2.300144e+00
2.630000e-01 -3.402932e-01 1.019041e-03 -1.019041e-03 2.300172e+00
2.640000e-01 -3.401623e-01 1.045060e-03 -1.045060e-03 2.300200e+00
2.650000e-01 -3.400293e-01 1.071034e-03 -1.071034e-03 2.300229e+00
2.660000e-01 -3.398942e-01 1.096956e-03 -1.096956e-03 2.300258e+00
2.670000e-01 -3.397571e-01 1.122822e-03 -1.122822e-03 2.300287e+00
2.680000e-01 -3.396180e-01 1.148626e-03 -1.148626e-03 2.300316e+00
2.690000e-01 -3.394768e-01 1.174364e-03 -1.174364e-03 2.300345e+00
2.700000e-01 -3.393335e-01 1.200030e-03 -1.200030e-03 2.300374e+00
2.710000e-01 -3.391883e-01 1.225622e-03 -1.225622e-03 2.300403e+00
2.720000e-01 -3.390409e-01 1.251133e-03 -1.251133e-03 2.300432e+00
2.730000e-01 -3.388916e-01 1.276561e-03 -1.276561e-03 2.300461e+00
2.740000e-01 -3.387402e-01 1.301902e-03 -1.301902e-03 2.300490e+00
2.750000e-01 -3.385868e-01 1.327151e-03 -1.327151e-03 2.300519e+00
2.760000e-01 -3.384313e-01 1.352305e-03 -1.352305e-03 2.300548e+00
2.770000e-01 -3.382739e-01 1.377361e-03 -1.377361e-03 2.300577e+00
2.780000e-01 -3.381144e-01 1.402315e-03 -1.402315e-03 2.300606e+00
2.790000e-01 -3.379529e-01 1.427165e-03 -1.427165e-03 2.300635e+00
2.800000e-01 -3.377894e-01 1.451907e-03 -1.451907e-03 2.300663e+00
2.810000e-01 -3.376238e-01 1.476539e-03 -1.476539e-03 2.300692e+00
2.820000e-01 -3.374563e-01 1.501058e-03 -1.501058e-03 2.300720e+00
2.830000e-01 -3.372867e-01 1.525461e-03 -1.525461e-03 2.300748e+00
2.840000e-01 -3.371151e-01 1.549746e-03 -1.549746e-03 2.300776e+00
2.850000e-01 -3.369415e-01 1.573911e-03 -1.573911e-03 2.300803e+00
2.860000e-01 -3.367660e-01 1.597952e-03 -1.597952e-03 2.300831e+00
2.870000e-01 -3.365884e-01 1.621869e-03 -1.621869e-03 2.300858e+00
2.880000e-01 -3.364088e-01 1.645659e-03 -1.645659e-03 2.300884e+00
2.890000e-01 -3.362272e-01 1.669319e-03 -1.669319e-03 2.300911e+00
2.900000e-01 -3.360436e-01 1.692850e-03 -1.692850e-03 2.300937e+00
2.910000e-01 -3.358580e-01 1.716247e-03 -1.716247e-03 2.300962e+00
2.920000e-01 -3.356704e-01 1.739510e-03 -1.739510e-03 2.300987e+00
2.930000e-01 -3.354808e-01 1.762638e-03 -1.762638e-03 2.301012e+00
2.940000e-01 -3.352893e-01 1.785628e-03 -1.785628e-03 2.301036e+00
2.950000e-01 -3.350957e-01 1.808479e-03 -1.808479e-03 2.301060e+00
2.960000e-01 -3.349002e-01 1.831190e-03 -1.831190e-03 2.301083e+00
2.970000e-01 -3.347026e-01 1.853760e-03 -1.853760e-03 2.301106e+00
2.980000e-01 -3.345031e-01 1.876187e-03 -1.876187e-03 2.301128e+00
2.990000e-01 -3.343016e-01 1.898471e-03 -1.898471e-03 2.301150e+00
3.000000e-01 -3.340981e-01 1.920609e-03 -1.920609e-03 2.301171e+00
3.010000e-01 -3.338926e-01 1.942602e-03 -1.942602e-03 2.301192e+00
3.020000e-01 -3.336852e-01 1.964447e-03 -1.964447e-03 2.301211e+00
3.030000e-01 -3.334757e-01 1.986145e-03 -1.986145e-03 2.301230e+00
3.040000e-01 -3.332643e-01 2.007695e-03 -2.007695e-03 2.301249e+00
3.050000e-01 -3.330510e-01 2.029095e-03 -2.029095e-03 2.301266e+00
3.060000e-01 -3.328356e-01 2.050345e-03 -2.050345e-03 2.301283e+00
3.070000e-01 -3.326183e-01 2.071444e-03 -2.071444e-03 2.301299e+00
3.080000e-01 -3.323990e-01 2.092392e-03 -2.092392e-03 2.301314e+00
3.090000e-01 -3.321777e-01 2.113187e-03 -2.113187e-03 2.301328e+00
3.100000e-01 -3.319545e-01 2.133831e-03 -2.133831e-03 2.301342e+00
3.110000e-01 -3.317293e-01 2.154321e-03 -2.154321e-03 2.301355e+00
3.120000e-01 -3.315022e-01 2.174658e-03 -2.174658e-03 2.301366e+00
3.130000e-01 -3.312730e-01 2.194841e-03 -2.194841e-03 2.301377e+00
3.140000e-01 -3.310420e-01 2.214871e-03 -2.214871e-03 2.301387e+00
3.150000e-01 -3.308089e-01 2.234745e-03 -2.234745e-03 2.301395e+00
3.160000e-01 -3.305739e-01 2.254465e-03 -2.254465e-03 2.301403e+00
3.170000e-01 -3.303370e-01 2.274031e-03 -2.274031e-03 2.301409e+00
3.180000e-01 -3.300981e-01 2.293441e-03 -2.293441e-03 2.301415e+00
3.190000e-01 -3.298572e-01 2.312696e-03 -2.312696e-03 2.301419e+00
3.200000e-01 -3.296144e-01 2.331796e-03 -2.331796e-03 2.301422e+00
3.210000e-01 -3.293697e-01 2.350741e-03 -2.350741e-03 2.301424e+00
3.220000e-01 -3.291229e-01 2.369530e-03 -2.369530e-03 2.301425e+00
3.230000e-01 -3.288743e-01 2.388164e-03 -2.388164e-03 2.301425e+00
3.240000e-01 -3.286237e-01 2.406643e-03 -2.406643e-03 2.301423e+00
3.250000e-01 -3.283712e-01 2.424966e-03 -2.424966e-03 2.301420e+00
3.260000e-01 -3.281167e-01 2.443135e-03 -2.443135e-03 2.301416e+00
3.270000e-01 -3.278602e-01 2.461148e-03 -2.461148e-03 2.301410e+00
3.280000e-01 -3.276019e-01 2.479007e-03 -2.479007e-03 2.301403e+00
3.290000e-01 -3.273416e-01 2.496712e-03 -2.496712e-03 2.301395e+00
3.300000e-01 -3.270793e-01 2.514262e-03 -2.514262e-03 2.301385e+00
3.310000e-01 -3.268151e-01 2.531658e-03 -2.531658e-03 2.301374e+00
3.320000e-01 -3.265490e-01 2.548900e-03 -2.548900e-03 2.301361e+00
3.330000e-01 -3.262809e-01 2.565988e-03 -2.565988e-03 2.301347e+00
3.340000e-01 -3.260109e-01 2.582924e-03 -2.582924e-03 2.301331e+00
3.350000e-01 -3.257390e-01 2.599707e-03 -2.599707e-03 2.301314e+00
3.360000e-01 -3.254652e-01 2.616337e-03 -2.616337e-03 2.301295e+00
3.370000e-01 -3.251894e-01 2.632816e-03 -2.632816e-03 2.301274e+00
3.380000e-01 -3.249116e-01 2.649142e-03 -2.649142e-03 2.301252e+00
3.390000e-01 -3.246320e-01 2.665318e-03 -2.665318e-03 2.301228e+00
3.400000e-01 -3.243504e-01 2.681343e-03 -2.681343e-03 2.301202e+00
3.410000e-01 -3.240669e-01 2.697218e-03 -2.697218e-03 2.301175e+00
3.420000e-01 -3.237814e-01 2.712943e-03 -2.712943e-03 2.301146e+00
3.430000e-01 -3.234940e-01 2.728519e-03 -2.728519e-03 2.301115e+00
3.440000e-01 -3.232047e-01 2.743946e-03 -2.743946e-03 2.301083e+00
3.450000e-01 -3.229134e-01 2.759225e-03 -2.759225e-03 2.301049e+00
3.460000e-01 -3.226202e-01 2.774357e-03 -2.774357e-03 2.301012e+00
3.470000e-01 -3.223251e-01 2.789342e-03 -2.789342e-03 2.300974e+00
3.480000e-01 -3.220281e-01 2.804180e-03 -2.804180e-03 2.300934e+00
3.490000e-01 -3.217291e-01 2.818873e-03 -2.818873e-03 2.300892e+00
3.500000e-01 -3.214282e-01 2.833420e-03 -2.833420e-03 2.300849e+00
3.510000e-01 -3.211253e-01 2.847823e-03 -2.847823e-03 2.300803e+00
3.520000e-01 -3.208205e-01 2.862082e-03 -2.862082e-03 2.300755e+00
3.530000e-01 -3.205138e-01 2.876197e-03 -2.876197e-03 2.300705e+00
3.540000e-01 -3.202051e-01 2.890170e-03 -2.890170e-03 2.300654e+00
3.550000e-01 -3.198945e-01 2.904001e-03 -2.904001e-03 2.300600e+00
3.560000e-01 -3.195819e-01 2.917691e-03 -2.917691e-03 2.300544e+00
3.570000e-01 -3.192674e-01 2.931240e-03 -2.931240e-03 2.300486e+00
3.580000e-01 -3.189509e-01 2.944649e-03 -2.944649e-03 2.300426e+00
3.590000e-01 -3.186325e-01 2.957918e-03 -2.957918e-03 2.300363e+00
3.600000e-01 -3.183121e-01 2.971049e-03 -2.971049e-03 2.300299e+00
3.610000e-01 -3.179898e-01 2.984043e-03 -2.984043e-03 2.300233e+00
3.620000e-01 -3.176655e-01 2.996898e-03 -2.996898e-03 2.300164e+00
3.630000e-01 -3.173393e-01 3.009618e-03 -3.009618e-03 2.300093e+00
3.640000e-01 -3.170110e-01 3.022201e-03 -3.022201e-03 2.300020e+00
3.650000e-01 -3.166809e-01 3.034649e-03 -3.034649e-03 2.299944e+00
3.660000e-01 -3.163487e-01 3.046963e-03 -3.046963e-03 2.299866e+00
3.670000e-01 -3.160146e-01 3.059142e-03 -3.059142e-03 2.299786e+00
3.680000e-01 -3.156784e-01 3.071189e-03 -3.071189e-03 2.299704e+00
3.690000e-01 -3.153403e-01 3.083103e-03 -3.083103e-03 2.299619e+00
3.700000e-01 -3.150002e-01 3.094885e-03 -3.094885e-03 2.299532e+00
3.710000e-01 -3.146582e-01 3.106537e-03 -3.106537e-03 2.299443e+00
3.720000e-01 -3.143141e-01 3.118057e-03 -3.118057e-03 2.299351e+00
3.730000e-01 -3.139680e-01 3.129448e-03 -3.129448e-03 2.299257e+00
3.740000e-01 -3.136198e-01 3.140710e-03 -3.140710e-03 2.299161e+00
3.750000e-01 -3.132697e-01 3.151844e-03 -3.151844e-03 2.299062e+00
3.760000e-01 -3.129175e-01 3.162849e-03 -3.162849e-03 2.298961e+00
3.770000e-01 -3.125634e-01 3.173728e-03 -3.173728e-03 2.298857e+00
3.780000e-01 -3.122071e-01 3.184480e-03 -3.184480e-03 2.298750e+00
3.790000e-01 -3.118489e-01 3.195106e-03 -3.195106e-03 2.298642e+00
3.800000e-01 -3.114885e-01 3.205606e-03 -3.205606e-03 2.298531e+00
3.810000e-01 -3.111262e-01 3.215982e-03 -3.215982e-03 2.298417e+00
3.820000e-01 -3.107617e-01 3.226234e-03 -3.226234e-03 2.298301e+00
3.830000e-01 -3.103952e-01 3.236363e-03 -3.236363e-03 2.298182e+00
3.840000e-01 -3.100266e-01 3.246369e-03 -3.246369e-03 2.298061e+00
3.850000e-01 -3.096559e-01 3.256252e-03 -3.256252e-03 2.297937e+00
3.860000e-01 -3.092831e-01 3.266014e-03 -3.266014e-03 2.297810e+00
3.870000e-01 -3.089081e-01 3.275654e-03 -3.275654e-03 2.297681e+00
3.880000e-01 -3.085311e-01 3.285174e-03 -3.285174e-03 2.297550e+00
3.890000e-01 -3.081520e-01 3.294574e-03 -3.294574e-03 2.297416e+00
3.900000e-01 -3.077707e-01 3.303854e-03 -3.303854e-03 2.297279e+00
3.910000e-01 -3.073872e-01 3.313015e-03 -3.313015e-03 2.297140e+00
3.920000e-01 -3.070016e-01 3.322058e-03 -3.322058e-03 2.296998e+00
3.930000e-01 -3.066138e-01 3.330982e-03 -3.330982e-03 2.296854e+00
3.940000e-01 -3.062238e-01 3.339789e-03 -3.339789e-03 2.296706e+00
3.950000e-01 -3.058317e-01 3.348479e-03 -3.348479e-03 2.296557e+00
3.960000e-01 -3.054373e-01 3.357052e-03 -3.357052e-03 2.296404e+00
3.970000e-01 -3.050407e-01 3.365508e-03 -3.365508e-03 2.296249e+00
3.980000e-01 -3.046419e-01 3.373849e-03 -3.373849e-03 2.296092e+00
3.990000e-01 -3.042408e-01 3.382074e-03 -3.382074e-03 2.295931e+00
4.000000e-01 -3.038375e-01 3.390184e-03 -3.390184e-03 2.295769e+00
4.010000e-01 -3.034319e-01 3.398179e-03 -3.398179e-03 2.295603e+00
4.020000e-01 -3.030241e-01 3.406060e-03 -3.406060e-03 2.295435e+00
4.030000e-01 -3.026139e-01 3.413827e-03 -3.413827e-03 2.295264e+00
4.040000e-01 -3.022014e-01 3.421480e-03 -3.421480e-03 2.295090e+00
4.050000e-01 -3.017866e-01 3.429019e-03 -3.429019e-03 2.294914e+00
4.060000e-01 -3.013695e-01 3.436446e-03 -3.436446e-03 2.294735e+00
4.070000e-01 -3.009499e-01 3.443759e-03 -3.443759e-03 2.294554e+00
4.080000e-01 -3.005281e-01 3.450960e-03 -3.450960e-03 2.294370e+00
4.090000e-01 -3.001038e-01 3.458048e-03 -3.458048e-03 2.294183e+00
4.100000e-01 -2.996771e-01 3.465025e-03 -3.465025e-03 2.293993e+00
4.110000e-01 -2.992480e-01 3.471889e-03 -3.471889e-03 2.293801e+00
4.120000e-01 -2.988165e-01 3.478641e-03 -3.478641e-03 2.293607e+00
4.130000e-01 -2.983825e-01 3.485282e-03 -3.485282e-03 2.293409e+00
4.140000e-01 -2.979460e-01 3.491811e-03 -3.491811e-03 2.293209e+00
4.150000e-01 -2.975070e-01 3.498229e-03 -3.498229e-03 2.293006e+00
4.160000e-01 -2.970656e-01 3.504535e-03 -3.504535e-03 2.292801e+00
4.170000e-01 -2.966216e-01 3.510731e-03 -3.510731e-03 2.292593e+00
4.180000e-01 -2.961750e-01 3.516815e-03 -3.516815e-03 2.292382e+00
4.190000e-01 -2.957259e-01 3.522788e-03 -3.522788e-03 2.292169e+00
4.200000e-01 -2.952742e-01 3.528650e-03 -3.528650e-03 2.291953e+00
4.210000e-01 -2.948198e-01 3.534401e-03 -3.534401e-03 2.291735e+00
4.220000e-01 -2.943629e-01 3.540041e-03 -3.540041e-03 2.291514e+00
4.230000e-01 -2.939033e-01 3.545570e-03 -3.545570e-03 2.291290e+00
4.240000e-01 -2.934410e-01 3.550988e-03 -3.550988e-03 2.291064e+00
4.250000e-01 -2.929761e-01 3.556295e-03 -3.556295e-03 2.290835e+00
4.260000e-01 -2.925084e-01 3.561491e-03 -3.561491e-03 2.290604e+00
4.270000e-01 -2.920380e-01 3.566575e-03 -3.566575e-03 2.290370e+00
4.280000e-01 -2.915648e-01 3.571548e-03 -3.571548e-03 2.290133e+00
4.290000e-01 -2.910888e-01 3.576409e-03 -3.576409e-03 2.289894e+00
4.300000e-01 -2.906101e-01 3.581158e-03 -3.581158e-03 2.289652e+00
4.310000e-01 -2.901285e-01 3.585796e-03 -3.585796e-03 2.289408e+00
4.320000e-01 -2.896440e-01 3.590321e-03 -3.590321e-03 2.289162e+00
4.330000e-01 -2.891567e-01 3.594734e-03 -3.594734e-03 2.288912e+00
4.340000e-01 -2.886665e-01 3.599034e-03 -3.599034e-03 2.288661e+00
4.350000e-01 -2.881733e-01 3.603222e-03 -3.603222e-03 2.288407e+00
4.360000e-01 -2.876772e-01 3.607296e-03 -3.607296e-03 2.288150e+00
4.370000e-01 -2.871782e-01 3.611257e-03 -3.611257e-03 2.287891e+00
4.380000e-01 -2.866761e-01 3.615104e-03 -3.615104e-03 2.287630e+00
4.390000e-01 -2.861710e-01 3.618837e-03 -3.618837e-03 2.287366e+00
4.400000e-01 -2.856628e-01 3.622455e-03 -3.622455e-03 2.287100e+00
4.410000e-01 -2.851516e-01 3.625959e-03 -3.625959e-03 2.286831e+00
4.420000e-01 -2.846372e-01 3.629347e-03 -3.629347e-03 2.286560e+00
4.430000e-01 -2.841197e-01 3.632619e-03 -3.632619e-03 2.286287e+00
4.440000e-01 -2.835990e-01 3.635776e-03 -3.635776e-03 2.286011e+00
4.450000e-01 -2.830751e-01 3.638815e-03 -3.638815e-03 2.285733e+00
4.460000e-01 -2.825481e-01 3.641738e-03 -3.641738e-03 2.285453e+00
4.470000e-01 -2.820177e-01 3.644542e-03 -3.644542e-03 2.285170e+00
4.480000e-01 -2.814841e-01 3.647229e-03 -3.647229e-03 2.284885e+00
4.490000e-01 -2.809472e-01 3.649797e-03 -3.649797e-03 2.284598e+00
4.500000e-01 -2.804069e-01 3.652246e-03 -3.652246e-03 2.284309e+00
4.510000e-01 -2.798632e-01 3.654574e-03 -3.654574e-03 2.284017e+00
4.520000e-01 -2.793162e-01 3.656782e-03 -3.656782e-03 2.283724e+00
4.530000e-01 -2.787657e-01 3.658869e-03 -3.658869e-03 2.283428e+00
4.540000e-01 -2.782117e-01 3.660835e-03 -3.660835e-03 2.283130e+00
4.550000e-01 -2.776543e-01 3.662677e-03 -3.662677e-03 2.282830e+00
4.560000e-01 -2.770933e-01 3.664397e-03 -3.664397e-03 2.282527e+00
4.570000e-01 -2.765287e-01 3.665992e-03 -3.665992e-03 2.282223e+00
4.580000e-01 -2.759606e-01 3.667463e-03 -3.667463e-03 2.281917e+00
4.590000e-01 -2.753888e-01 3.668809e-03 -3.668809e-03 2.281609e+00
4.600000e-01 -2.749808e-01 3.231085e-03 -3.231085e-03 2.274946e+00
4.610000e-01 -2.746126e-01 3.234307e-03 -3.234307e-03 2.274516e+00
4.620000e-01 -2.742012e-01 3.236530e-03 -3.236530e-03 2.274115e+00
4.630000e-01 -2.737555e-01 3.237885e-03 -3.237885e-03 2.273731e+00
4.640000e-01 -2.732821e-01 3.238489e-03 -3.238489e-03 2.273359e+00
4.650000e-01 -2.727860e-01 3.238445e-03 -3.238445e-03 2.272993e+00
4.660000e-01 -2.722711e-01 3.237838e-03 -3.237838e-03 2.272630e+00
4.670000e-01 -2.717404e-01 3.236739e-03 -3.236739e-03 2.272268e+00
4.680000e-01 -2.711962e-01 3.235209e-03 -3.235209e-03 2.271907e+00
4.690000e-01 -2.706403e-01 3.233296e-03 -3.233296e-03 2.271544e+00
4.700000e-01 -2.700740e-01 3.231042e-03 -3.231042e-03 2.271179e+00
4.710000e-01 -2.694987e-01 3.228479e-03 -3.228479e-03 2.270813e+00
4.720000e-01 -2.689151e-01 3.225635e-03 -3.225635e-03 2.270444e+00
4.730000e-01 -2.683240e-01 3.222534e-03 -3.222534e-03 2.270073e+00
4.740000e-01 -2.677259e-01 3.219195e-03 -3.219195e-03 2.269699e+00
4.750000e-01 -2.671215e-01 3.215635e-03 -3.215635e-03 2.269323e+00
4.760000e-01 -2.665109e-01 3.211866e-03 -3.211866e-03 2.268944e+00
4.770000e-01 -2.658945e-01 3.207902e-03 -3.207902e-03 2.268563e+00
4.780000e-01 -2.652726e-01 3.203752e-03 -3.203752e-03 2.268180e+00
4.790000e-01 -2.646454e-01 3.199425e-03 -3.199425e-03 2.267795e+00
4.800000e-01 -2.640130e-01 3.194927e-03 -3.194927e-03 2.267408e+00
4.810000e-01 -2.633755e-01 3.190267e-03 -3.190267e-03 2.267019e+00
4.820000e-01 -2.627331e-01 3.185449e-03 -3.185449e-03 2.266628e+00
4.830000e-01 -2.620858e-01 3.180477e-03 -3.180477e-03 2.266236e+00
4.840000e-01 -2.614336e-01 3.175357e-03 -3.175357e-03 2.265842e+00
4.850000e-01 -2.607767e-01 3.170092e-03 -3.170092e-03 2.265446e+00
4.860000e-01 -2.601150e-01 3.164685e-03 -3.164685e-03 2.265049e+00
4.870000e-01 -2.594486e-01 3.159138e-03 -3.159138e-03 2.264651e+00
4.880000e-01 -2.587774e-01 3.153455e-03 -3.153455e-03 2.264252e+00
4.890000e-01 -2.581015e-01 3.147636e-03 -3.147636e-03 2.263851e+00
4.900000e-01 -2.574208e-01 3.141685e-03 -3.141685e-03 2.263449e+00
4.910000e-01 -2.567355e-01 3.135601e-03 -3.135601e-03 2.263047e+00
4.920000e-01 -2.560453e-01 3.129387e-03 -3.129387e-03 2.262643e+00
4.930000e-01 -2.553504e-01 3.123043e-03 -3.123043e-03 2.262238e+00
4.940000e-01 -2.546506e-01 3.116570e-03 -3.116570e-03 2.261833e+00
4.950000e-01 -2.539461e-01 3.109968e-03 -3.109968e-03 2.261427e+00
4.960000e-01 -2.532366e-01 3.103239e-03 -3.103239e-03 2.261020e+00
4.970000e-01 -2.525223e-01 3.096383e-03 -3.096383e-03 2.260613e+00
4.980000e-01 -2.518031e-01 3.089399e-03 -3.089399e-03 2.260205e+00
4.990000e-01 -2.510789e-01 3.082288e-03 -3.082288e-03 2.259797e+00
5.000000e-01 -2.503497e-01 3.075050e-03 -3.075050e-03 2.259388e+00
5.010000e-01 -2.496155e-01 3.067685e-03 -3.067685e-03 2.258979e+00
5.020000e-01 -2.488762e-01 3.060192e-03 -3.060192e-03 2.258569e+00
5.030000e-01 -2.481318e-01 3.052573e-03 -3.052573e-03 2.258159e+00
5.040000e-01 -2.473823e-01 3.044825e-03 -3.044825e-03 2.257749e+00
5.050000e-01 -2.466275e-01 3.036949e-03 -3.036949e-03 2.257340e+00
5.060000e-01 -2.458676e-01 3.028945e-03 -3.028945e-03 2.256929e+00
5.070000e-01 -2.451023e-01 3.020813e-03 -3.020813e-03 2.256519e+00
5.080000e-01 -2.443318e-01 3.012551e-03 -3.012551e-03 2.256109e+00
5.090000e-01 -2.435558e-01 3.004160e-03 -3.004160e-03 2.255700e+00
5.100000e-01 -2.427745e-01 2.995638e-03 -2.995638e-03 2.255290e+00
5.110000e-01 -2.419877e-01 2.986986e-03 -2.986986e-03 2.254881e+00
5.120000e-01 -2.411954e-01 2.978203e-03 -2.978203e-03 2.254471e+00
5.130000e-01 -2.403976e-01 2.969289e-03 -2.969289e-03 2.254063e+00
5.140000e-01 -2.395941e-01 2.960242e-03 -2.960242e-03 2.253655e+00
5.150000e-01 -2.387850e-01 2.951063e-03 -2.951063e-03 2.253247e+00
5.160000e-01 -2.379702e-01 2.941751e-03 -2.941751e-03 2.252840e+00
5.170000e-01 -2.371497e-01 2.932305e-03 -2.932305e-03 2.252433e+00
5.180000e-01 -2.363234e-01 2.922725e-03 -2.922725e-03 2.252027e+00
5.190000e-01 -2.354912e-01 2.913010e-03 -2.913010e-03 2.251622e+00
5.200000e-01 -2.346531e-01 2.903159e-03 -2.903159e-03 2.251218e+00
5.210000e-01 -2.338091e-01 2.893173e-03 -2.893173e-03 2.250815e+00
5.220000e-01 -2.329591e-01 2.883050e-03 -2.883050e-03 2.250413e+00
5.230000e-01 -2.321030e-01 2.872790e-03 -2.872790e-03 2.250012e+00
5.240000e-01 -2.312408e-01 2.862393e-03 -2.862393e-03 2.249612e+00
5.250000e-01 -2.303725e-01 2.851858e-03 -2.851858e-03 2.249213e+00
5.260000e-01 -2.294980e-01 2.841184e-03 -2.841184e-03 2.248816e+00
5.270000e-01 -2.286172e-01 2.830371e-03 -2.830371e-03 2.248419e+00
5.280000e-01 -2.277301e-01 2.819418e-03 -2.819418e-03 2.248025e+00
5.290000e-01 -2.268366e-01 2.808325e-03 -2.808325e-03 2.247632e+00
5.300000e-01 -2.259367e-01 2.797092e-03 -2.797092e-03 2.247240e+00
5.310000e-01 -2.250304e-01 2.785717e-03 -2.785717e-03 2.246850e+00
5.320000e-01 -2.241175e-01 2.774201e-03 -2.774201e-03 2.246462e+00
5.330000e-01 -2.231980e-01 2.762543e-03 -2.762543e-03 2.246076e+00
5.340000e-01 -2.222719e-01 2.750743e-03 -2.750743e-03 2.245691e+00
5.350000e-01 -2.213390e-01 2.738800e-03 -2.738800e-03 2.245309e+00
5.360000e-01 -2.203994e-01 2.726713e-03 -2.726713e-03 2.244929e+00
5.370000e-01 -2.194530e-01 2.714483e-03 -2.714483e-03 2.244550e+00
5.380000e-01 -2.184998e-01 2.702108e-03 -2.702108e-03 2.244175e+00
5.390000e-01 -2.175396e-01 2.689590e-03 -2.689590e-03 2.243801e+00
5.400000e-01 -2.165724e-01 2.676926e-03 -2.676926e-03 2.243430e+00
5.410000e-01 -2.155981e-01 2.664117e-03 -2.664117e-03 2.243061e+00
5.420000e-01 -2.146168e-01 2.651163e-03 -2.651163e-03 2.242695e+00
5.430000e-01 -2.136283e-01 2.638062e-03 -2.638062e-03 2.242331e+00
5.440000e-01 -2.126326e-01 2.624816e-03 -2.624816e-03 2.241971e+00
5.450000e-01 -2.116296e-01 2.611423e-03 -2.611423e-03 2.241613e+00
5.460000e-01 -2.106193e-01 2.597884e-03 -2.597884e-03 2.241258e+00
5.470000e-01 -2.096016e-01 2.584197e-03 -2.584197e-03 2.240906e+00
5.480000e-01 -2.085764e-01 2.570363e-03 -2.570363e-03 2.240557e+00
5.490000e-01 -2.075438e-01 2.556382e-03 -2.556382e-03 2.240211e+00
5.500000e-01 -2.065035e-01 2.542253e-03 -2.542253e-03 2.239869e+00
5.510000e-01 -2.054557e-01 2.527976e-03 -2.527976e-03 2.239530e+00
5.520000e-01 -2.044001e-01 2.513550e-03 -2.513550e-03 2.239194e+00
5.530000e-01 -2.033368e-01 2.498976e-03 -2.498976e-03 2.238862e+00
5.540000e-01 -2.022657e-01 2.484254e-03 -2.484254e-03 2.238533e+00
5.550000e-01 -2.011867e-01 2.469383e-03 -2.469383e-03 2.238208e+00
5.560000e-01 -2.000998e-01 2.454362e-03 -2.454362e-03 2.237887e+00
5.570000e-01 -1.990049e-01 2.439193e-03 -2.439193e-03 2.237570e+00
5.580000e-01 -1.979020e-01 2.423874e-03 -2.423874e-03 2.237257e+00
5.590000e-01 -1.967910e-01 2.408405e-03 -2.408405e-03 2.236947e+00
5.600000e-01 -1.956718e-01 2.392787e-03 -2.392787e-03 2.236642e+00
5.610000e-01 -1.945444e-01 2.377018e-03 -2.377018e-03 2.236341e+00
5.620000e-01 -1.934088e-01 2.361100e-03 -2.361100e-03 2.236044e+00
5.630000e-01 -1.922649e-01 2.345031e-03 -2.345031e-03 2.235752e+00
5.640000e-01 -1.911125e-01 2.328811e-03 -2.328811e-03 2.235464e+00
5.650000e-01 -1.899518e-01 2.312441e-03 -2.312441e-03 2.235181e+00
5.660000e-01 -1.887826e-01 2.295920e-03 -2.295920e-03 2.234902e+00
5.670000e-01 -1.876048e-01 2.279247e-03 -2.279247e-03 2.234627e+00
5.680000e-01 -1.864185e-01 2.262423e-03 -2.262423e-03 2.234358e+00
5.690000e-01 -1.852236e-01 2.245447e-03 -2.245447e-03 2.234093e+00
5.700000e-01 -1.840200e-01 2.228319e-03 -2.228319e-03 2.233833e+00
5.710000e-01 -1.828076e-01 2.211039e-03 -2.211039e-03 2.233578e+00
5.720000e-01 -1.815865e-01 2.193606e-03 -2.193606e-03 2.233328e+00
5.730000e-01 -1.803566e-01 2.176021e-03 -2.176021e-03 2.233083e+00
5.740000e-01 -1.791179e-01 2.158281e-03 -2.158281e-03 2.232843e+00
5.750000e-01 -1.778703e-01 2.140388e-03 -2.140388e-03 2.232609e+00
5.760000e-01 -1.766138e-01 2.122341e-03 -2.122341e-03 2.232379e+00
5.770000e-01 -1.753483e-01 2.104140e-03 -2.104140e-03 2.232155e+00
5.780000e-01 -1.740739e-01 2.085783e-03 -2.085783e-03 2.231936e+00
5.790000e-01 -1.727904e-01 2.067271e-03 -2.067271e-03 2.231722e+00
5.800000e-01 -1.714980e-01 2.048602e-03 -2.048602e-03 2.231514e+00
5.810000e-01 -1.701965e-01 2.029777e-03 -2.029777e-03 2.231311e+00
5.820000e-01 -1.688859e-01 2.010795e-03 -2.010795e-03 2.231114e+00
5.830000e-01 -1.675662e-01 1.991655e-03 -1.991655e-03 2.230922e+00
5.840000e-01 -1.662375e-01 1.972357e-03 -1.972357e-03 2.230736e+00
5.850000e-01 -1.648997e-01 1.952899e-03 -1.952899e-03 2.230555e+00
5.860000e-01 -1.635528e-01 1.933282e-03 -1.933282e-03 2.230380e+00
5.870000e-01 -1.621968e-01 1.913503e-03 -1.913503e-03 2.230210e+00
5.880000e-01 -1.608317e-01 1.893564e-03 -1.893564e-03 2.230047e+00
5.890000e-01 -1.594576e-01 1.873463e-03 -1.873463e-03 2.229888e+00
5.900000e-01 -1.580744e-01 1.853198e-03 -1.853198e-03 2.229736e+00
5.910000e-01 -1.562228e-01 2.688534e-03 -2.688534e-03 2.223554e+00
5.920000e-01 -1.551985e-01 2.672135e-03 -2.672135e-03 2.223241e+00
5.930000e-01 -1.540695e-01 2.650304e-03 -2.650304e-03 2.223030e+00
5.940000e-01 -1.528686e-01 2.624971e-03 -2.624971e-03 2.222874e+00
5.950000e-01 -1.516157e-01 2.597225e-03 -2.597225e-03 2.222749e+00
5.960000e-01 -1.503233e-01 2.567728e-03 -2.567728e-03 2.222642e+00
5.970000e-01 -1.489996e-01 2.536912e-03 -2.536912e-03 2.222548e+00
5.980000e-01 -1.476504e-01 2.505081e-03 -2.505081e-03 2.222463e+00
5.990000e-01 -1.462797e-01 2.472450e-03 -2.472450e-03 2.222385e+00
6.000000e-01 -1.448906e-01 2.439182e-03 -2.439182e-03 2.222314e+00
6.010000e-01 -1.434852e-01 2.405394e-03 -2.405394e-03 2.222249e+00
6.020000e-01 -1.420652e-01 2.371172e-03 -2.371172e-03 2.222190e+00
6.030000e-01 -1.406318e-01 2.336577e-03 -2.336577e-03 2.222138e+00
6.040000e-01 -1.391861e-01 2.301653e-03 -2.301653e-03 2.222092e+00
6.050000e-01 -1.377287e-01 2.266426e-03 -2.266426e-03 2.222053e+00
6.060000e-01 -1.362601e-01 2.230913e-03 -2.230913e-03 2.222020e+00
6.070000e-01 -1.347808e-01 2.195124e-03 -2.195124e-03 2.221995e+00
6.080000e-01 -1.332911e-01 2.159061e-03 -2.159061e-03 2.221976e+00
6.090000e-01 -1.317911e-01 2.122722e-03 -2.122722e-03 2.221965e+00
6.100000e-01 -1.302812e-01 2.086103e-03 -2.086103e-03 2.221961e+00
6.110000e-01 -1.287613e-01 2.049199e-03 -2.049199e-03 2.221965e+00
6.120000e-01 -1.272316e-01 2.012003e-03 -2.012003e-03 2.221977e+00
6.130000e-01 -1.256922e-01 1.974507e-03 -1.974507e-03 2.221997e+00
6.140000e-01 -1.241430e-01 1.936705e-03 -1.936705e-03 2.222025e+00
6.150000e-01 -1.225841e-01 1.898589e-03 -1.898589e-03 2.222061e+00
6.160000e-01 -1.210155e-01 1.860153e-03 -1.860153e-03 2.222105e+00
6.170000e-01 -1.194371e-01 1.821390e-03 -1.821390e-03 2.222157e+00
6.180000e-01 -1.178491e-01 1.782295e-03 -1.782295e-03 2.222218e+00
6.190000e-01 -1.162513e-01 1.742862e-03 -1.742862e-03 2.222287e+00
6.200000e-01 -1.146438e-01 1.703088e-03 -1.703088e-03 2.222364e+00
6.210000e-01 -1.130266e-01 1.662968e-03 -1.662968e-03 2.222450e+00
6.220000e-01 -1.113996e-01 1.622498e-03 -1.622498e-03 2.222544e+00
6.230000e-01 -1.097629e-01 1.581675e-03 -1.581675e-03 2.222646e+00
6.240000e-01 -1.081165e-01 1.540497e-03 -1.540497e-03 2.222757e+00
6.250000e-01 -1.064603e-01 1.498961e-03 -1.498961e-03 2.222875e+00
6.260000e-01 -1.047946e-01 1.457064e-03 -1.457064e-03 2.223001e+00
6.270000e-01 -1.031191e-01 1.414806e-03 -1.414806e-03 2.223136e+00
6.280000e-01 -1.014342e-01 1.372186e-03 -1.372186e-03 2.223277e+00
6.290000e-01 -9.973981e-02 1.329202e-03 -1.329202e-03 2.223427e+00
6.300000e-01 -9.803610e-02 1.285854e-03 -1.285854e-03 2.223583e+00
6.310000e-01 -9.632322e-02 1.242143e-03 -1.242143e-03 2.223747e+00
6.320000e-01 -9.460134e-02 1.198071e-03 -1.198071e-03 2.223917e+00
6.330000e-01 -9.287069e-02 1.153638e-03 -1.153638e-03 2.224094e+00
6.340000e-01 -9.113152e-02 1.108849e-03 -1.108849e-03 2.224277e+00
6.350000e-01 -8.938414e-02 1.063707e-03 -1.063707e-03 2.224466e+00
6.360000e-01 -8.762890e-02 1.018218e-03 -1.018218e-03 2.224661e+00
6.370000e-01 -8.586621e-02 9.723872e-04 -9.723872e-04 2.224861e+00
6.380000e-01 -8.409652e-02 9.262236e-04 -9.262236e-04 2.225065e+00
6.390000e-01 -8.232036e-02 8.797364e-04 -8.797364e-04 2.225274e+00
6.400000e-01 -8.053832e-02 8.329370e-04 -8.329370e-04 2.225487e+00
6.410000e-01 -7.875102e-02 7.858384e-04 -7.858384e-04 2.225704e+00
6.420000e-01 -7.701572e-02 3.268761e-03 -3.268761e-03 2.221271e+00
6.430000e-01 -7.571435e-02 3.236182e-03 -3.236182e-03 2.221282e+00
6.440000e-01 -7.424888e-02 3.192195e-03 -3.192195e-03 2.221441e+00
6.450000e-01 -7.268711e-02 3.143849e-03 -3.143849e-03 2.221665e+00
6.460000e-01 -7.106342e-02 3.093647e-03 -3.093647e-03 2.221917e+00
6.470000e-01 -6.939732e-02 3.042560e-03 -3.042560e-03 2.222182e+00
6.480000e-01 -6.770077e-02 2.990963e-03 -2.990963e-03 2.222453e+00
6.490000e-01 -6.598138e-02 2.938964e-03 -2.938964e-03 2.222726e+00
6.500000e-01 -6.424419e-02 2.886559e-03 -2.886559e-03 2.223001e+00
6.510000e-01 -6.249256e-02 2.833697e-03 -2.833697e-03 2.223277e+00
6.520000e-01 -6.072878e-02 2.780325e-03 -2.780325e-03 2.223553e+00
6.530000e-01 -5.895442e-02 2.726398e-03 -2.726398e-03 2.223830e+00
6.540000e-01 -5.717058e-02 2.671892e-03 -2.671892e-03 2.224108e+00
6.550000e-01 -5.537807e-02 2.616798e-03 -2.616798e-03 2.224387e+00
6.560000e-01 -5.357748e-02 2.561123e-03 -2.561123e-03 2.224665e+00
6.570000e-01 -5.176937e-02 2.504888e-03 -2.504888e-03 2.224943e+00
6.580000e-01 -4.995426e-02 2.448123e-03 -2.448123e-03 2.225220e+00
6.590000e-01 -4.813276e-02 2.390866e-03 -2.390866e-03 2.225494e+00
6.600000e-01 -4.630562e-02 2.333162e-03 -2.333162e-03 2.225764e+00
6.610000e-01 -4.447381e-02 2.275063e-03 -2.275063e-03 2.226028e+00
6.620000e-01 -4.263852e-02 2.216626e-03 -2.216626e-03 2.226285e+00
6.630000e-01 -3.902348e-02 -3.274231e-03 3.274231e-03 2.221285e+00
6.640000e-01 -3.794614e-02 -3.303476e-03 3.303476e-03 2.220960e+00
6.650000e-01 -3.651795e-02 -3.334755e-03 3.334755e-03 2.220934e+00
6.660000e-01 -3.491913e-02 -3.369107e-03 3.369107e-03 2.221019e+00
6.670000e-01 -3.322793e-02 -3.406408e-03 3.406408e-03 2.221153e+00
6.680000e-01 -3.148398e-02 -3.446197e-03 3.446197e-03 2.221312e+00
6.690000e-01 -2.970971e-02 -3.487971e-03 3.487971e-03 2.221479e+00
6.700000e-01 -2.791908e-02 -3.531281e-03 3.531281e-03 2.221648e+00
6.710000e-01 -2.612173e-02 -3.575750e-03 3.575750e-03 2.221810e+00
6.720000e-01 -2.432518e-02 -3.621047e-03 3.621047e-03 2.221963e+00
6.730000e-01 -2.253607e-02 -3.666857e-03 3.666857e-03 2.222103e+00
6.740000e-01 -2.076084e-02 -3.712846e-03 3.712846e-03 2.222230e+00
6.750000e-01 -1.900615e-02 -3.758639e-03 3.758639e-03 2.222344e+00
6.760000e-01 -1.539248e-02 -2.667995e-03 2.667995e-03 2.222497e+00
6.770000e-01 -1.440734e-02 -2.694348e-03 2.694348e-03 2.222584e+00
6.780000e-01 -1.302017e-02 -2.734282e-03 2.734282e-03 2.222791e+00
6.790000e-01 -1.149811e-02 -2.778873e-03 2.778873e-03 2.223052e+00
6.800000e-01 -9.944309e-03 -2.825220e-03 2.825220e-03 2.223327e+00
6.810000e-01 -8.413046e-03 -2.871430e-03 2.871430e-03 2.223591e+00
6.820000e-01 -6.942021e-03 -2.915949e-03 2.915949e-03 2.223826e+00
6.830000e-01 -5.560382e-03 -2.957530e-03 2.957530e-03 2.224018e+00
6.840000e-01 -4.289183e-03 -2.995312e-03 2.995312e-03 2.224156e+00
6.850000e-01 -3.139185e-03 -3.028600e-03 3.028600e-03 2.224233e+00
6.860000e-01 -1.737941e-03 -3.093809e-03 3.093809e-03 2.224750e+00
6.870000e-01 -5.274998e-04 -3.121535e-03 3.121535e-03 2.225676e+00
6.880000e-01 -4.876033e-04 -3.109568e-03 3.109568e-03 2.225115e+00
6.890000e-01 -8.394728e-05 -3.109910e-03 3.109910e-03 2.224953e+00
6.900000e-01 -2.341877e-17 -1.747397e-04 1.747397e-04 2.219156e+00
6.910000e-01 -1.994932e-17 -1.736171e-04 1.736171e-04 2.219230e+00
6.920000e-01 1.301043e-17 -1.724969e-04 1.724969e-04 2.219304e+00
6.930000e-01 1.734723e-18 -1.713791e-04 1.713791e-04 2.219377e+00
6.940000e-01 -1.561251e-17 -1.702637e-04 1.702637e-04 2.219451e+00
6.950000e-01 -1.474515e-17 -1.691507e-04 1.691507e-04 2.219525e+00
6.960000e-01 1.301043e-17 -1.680401e-04 1.680401e-04 2.219600e+00
6.970000e-01 -1.561251e-17 -1.669320e-04 1.669320e-04 2.219674e+00
6.980000e-01 -2.428613e-17 -1.658262e-04 1.658262e-04 2.219748e+00
6.990000e-01 -8.153200e-17 -1.647228e-04 1.647228e-04 2.219823e+00
7.000000e-01 7.285839e-17 -1.636219e-04 1.636219e-04 2.219897e+00
7.010000e-01 2.428613e-17 -1.625233e-04 1.625233e-04 2.219972e+00
7.020000e-01 -5.377643e-17 -1.614271e-04 1.614271e-04 2.220047e+00
7.030000e-01 -1.734723e-18 -1.603333e-04 1.603333e-04 2.220122e+00
7.040000e-01 -6.852158e-17 -1.592419e-04 1.592419e-04 2.220197e+00
7.050000e-01 2.949030e-17 -1.581528e-04 1.581528e-04 2.220272e+00
7.060000e-01 4.683753e-17 -1.570662e-04 1.570662e-04 2.220348e+00
7.070000e-01 -8.066464e-17 -1.559819e-04 1.559819e-04 2.220423e+00
7.080000e-01 -6.678685e-17 -1.549000e-04 1.549000e-04 2.220499e+00
7.090000e-01 -6.418477e-17 -1.538204e-04 1.538204e-04 2.220574e+00
7.100000e-01 -2.602085e-18 -1.527432e-04 1.527432e-04 2.220650e+00
7.110000e-01 -5.117434e-17 -1.516684e-04 1.516684e-04 2.220726e+00
7.120000e-01 -3.469447e-17 -1.505959e-04 1.505959e-04 2.220802e+00
7.130000e-01 -3.122502e-17 -1.495258e-04 1.495258e-04 2.220878e+00
7.140000e-01 4.683753e-17 -1.484580e-04 1.484580e-04 2.220954e+00
7.150000e-01 -1.301043e-17 -1.473926e-04 1.473926e-04 2.221031e+00
7.160000e-01 -3.295975e-17 -1.463295e-04 1.463295e-04 2.221107e+00
7.170000e-01 -7.372575e-17 -1.452687e-04 1.452687e-04 2.221184e+00
7.180000e-01 -1.127570e-17 -1.442103e-04 1.442103e-04 2.221260e+00
7.190000e-01 -2.602085e-18 -1.431542e-04 1.431542e-04 2.221337e+00
7.200000e-01 -2.775558e-17 -1.421005e-04 1.421005e-04 2.221414e+00
7.210000e-01 -5.204170e-18 -1.410490e-04 1.410490e-04 2.221491e+00
7.220000e-01 2.775558e-17 -1.399999e-04 1.399999e-04 2.221568e+00
7.230000e-01 1.387779e-17 -1.389531e-04 1.389531e-04 2.221645e+00
7.240000e-01 -1.049508e-16 -1.379086e-04 1.379086e-04 2.221722e+00
7.250000e-01 -1.994932e-17 -1.368665e-04 1.368665e-04 2.221800e+00
7.260000e-01 1.387779e-17 -1.358266e-04 1.358266e-04 2.221877e+00
7.270000e-01 1.908196e-17 -1.347890e-04 1.347890e-04 2.221955e+00
7.280000e-01 -1.301043e-17 -1.337538e-04 1.337538e-04 2.222033e+00
7.290000e-01 4.336809e-17 -1.327208e-04 1.327208e-04 2.222111e+00
7.300000e-01 -6.852158e-17 -1.316901e-04 1.316901e-04 2.222189e+00
7.310000e-01 -6.071532e-17 -1.306618e-04 1.306618e-04 2.222267e+00
7.320000e-01 -1.249001e-16 -1.296357e-04 1.296357e-04 2.222345e+00
7.330000e-01 -2.949030e-17 -1.286119e-04 1.286119e-04 2.222423e+00
7.340000e-01 -7.546047e-17 -1.275903e-04 1.275903e-04 2.222502e+00
7.350000e-01 -3.556183e-17 -1.265710e-04 1.265710e-04 2.222580e+00
7.360000e-01 -6.765422e-17 -1.255541e-04 1.255541e-04 2.222659e+00
7.370000e-01 -5.030698e-17 -1.245393e-04 1.245393e-04 2.222738e+00
7.380000e-01 1.908196e-17 -1.235269e-04 1.235269e-04 2.222816e+00
7.390000e-01 -4.163336e-17 -1.225167e-04 1.225167e-04 2.222895e+00
7.400000e-01 -2.602085e-17 -1.215087e-04 1.215087e-04 2.222975e+00
7.410000e-01 2.081668e-17 -1.205030e-04 1.205030e-04 2.223054e+00
7.420000e-01 2.428613e-17 -1.194996e-04 1.194996e-04 2.223133e+00
7.430000e-01 -2.255141e-17 -1.184984e-04 1.184984e-04 2.223212e+00
7.440000e-01 -6.158268e-17 -1.174994e-04 1.174994e-04 2.223292e+00
7.450000e-01 -3.989864e-17 -1.165027e-04 1.165027e-04 2.223372e+00
7.460000e-01 -1.301043e-17 -1.155082e-04 1.155082e-04 2.223451e+00
7.470000e-01 0.000000e+00 -1.145160e-04 1.145160e-04 2.223531e+00
7.480000e-01 4.336809e-18 -1.135259e-04 1.135259e-04 2.223611e+00
7.490000e-01 -3.642919e-17 -1.125381e-04 1.125381e-04 2.223691e+00
7.500000e-01 -4.597017e-17 -1.115525e-04 1.115525e-04 2.223771e+00
7.510000e-01 -1.058181e-16 -1.105692e-04 1.105692e-04 2.223852e+00
7.520000e-01 3.469447e-17 -1.095880e-04 1.095880e-04 2.223932e+00
7.530000e-01 -4.336809e-17 -1.086091e-04 1.086091e-04 2.224012e+00
7.540000e-01 -6.418477e-17 -1.076323e-04 1.076323e-04 2.224093e+00
7.550000e-01 -1.647987e-17 -1.066578e-04 1.066578e-04 2.224174e+00
7.560000e-01 -9.801188e-17 -1.056854e-04 1.056854e-04 2.224254e+00
7.570000e-01 -1.092876e-16 -1.047153e-04 1.047153e-04 2.224335e+00
7.580000e-01 -1.908196e-17 -1.037473e-04 1.037473e-04 2.224416e+00
7.590000e-01 4.597017e-17 -1.027815e-04 1.027815e-04 2.224498e+00
7.600000e-01 -8.239937e-17 -1.018179e-04 1.018179e-04 2.224579e+00
7.610000e-01 -6.765422e-17 -1.008565e-04 1.008565e-04 2.224660e+00
7.620000e-01 -5.551115e-17 -9.989727e-05 9.989727e-05 2.224742e+00
7.630000e-01 -1.153591e-16 -9.894019e-05 9.894019e-05 2.224823e+00
7.640000e-01 -6.938894e-17 -9.798528e-05 9.798528e-05 2.224905e+00
7.650000e-01 -6.331741e-17 -9.703254e-05 9.703254e-05 2.224986e+00
7.660000e-01 -5.290907e-17 -9.608195e-05 9.608195e-05 2.225068e+00
7.670000e-01 -4.770490e-17 -9.513352e-05 9.513352e-05 2.225150e+00
7.680000e-01 -8.239937e-17 -9.418724e-05 9.418724e-05 2.225232e+00
7.690000e-01 -1.353084e-16 -9.324311e-05 9.324311e-05 2.225315e+00
7.700000e-01 2.168404e-17 -9.230112e-05 9.230112e-05 2.225397e+00
7.710000e-01 -9.367507e-17 -9.136127e-05 9.136127e-05 2.225479e+00
7.720000e-01 -1.084202e-16 -9.042356e-05 9.042356e-05 2.225562e+00
7.730000e-01 -5.117434e-17 -8.948798e-05 8.948798e-05 2.225644e+00
7.740000e-01 -1.084202e-16 -8.855453e-05 8.855453e-05 2.225727e+00
7.750000e-01 -1.465841e-16 -8.762321e-05 8.762321e-05 2.225810e+00
7.760000e-01 -5.811324e-17 -8.669400e-05 8.669400e-05 2.225893e+00
7.770000e-01 -7.892992e-17 -8.576692e-05 8.576692e-05 2.225976e+00
7.780000e-01 -1.387779e-17 -8.484194e-05 8.484194e-05 2.226059e+00
7.790000e-01 -1.101549e-16 -8.391908e-05 8.391908e-05 2.226142e+00
7.800000e-01 -9.367507e-17 -8.299832e-05 8.299832e-05 2.226226e+00
7.810000e-01 -7.632783e-17 -8.207967e-05 8.207967e-05 2.226309e+00
7.820000e-01 -1.006140e-16 -8.116311e-05 8.116311e-05 2.226393e+00
7.830000e-01 -1.006140e-16 -8.024864e-05 8.024864e-05 2.226476e+00
7.840000e-01 -7.806256e-17 -7.933627e-05 7.933627e-05 2.226560e+00
7.850000e-01 -1.144917e-16 -7.842598e-05 7.842598e-05 2.226644e+00
7.860000e-01 -9.020562e-17 -7.751778e-05 7.751778e-05 2.226728e+00
7.870000e-01 -1.266348e-16 -7.661166e-05 7.661166e-05 2.226812e+00
7.880000e-01 -1.214306e-17 -7.570761e-05 7.570761e-05 2.226896e+00
7.890000e-01 -6.071532e-17 -7.480563e-05 7.480563e-05 2.226980e+00
7.900000e-01 -9.107298e-17 -7.390571e-05 7.390571e-05 2.227065e+00
7.910000e-01 -1.006140e-16 -7.300787e-05 7.300787e-05 2.227149e+00
7.920000e-01 -1.292369e-16 -7.211208e-05 7.211208e-05 2.227234e+00
7.930000e-01 -8.933826e-17 -7.121835e-05 7.121835e-05 2.227318e+00
7.940000e-01 -8.066464e-17 -7.032667e-05 7.032667e-05 2.227403e+00
7.950000e-01 -1.040834e-16 -6.943703e-05 6.943703e-05 2.227488e+00
7.960000e-01 -2.168404e-17 -6.854945e-05 6.854945e-05 2.227573e+00
7.970000e-01 -4.163336e-17 -6.766390e-05 6.766390e-05 2.227658e+00
7.980000e-01 -8.500145e-17 -6.678039e-05 6.678039e-05 2.227743e+00
7.990000e-01 -7.806256e-17 -6.589891e-05 6.589891e-05 2.227829e+00
8.000000e-01 -5.551115e-17 -6.501946e-05 6.501946e-05 2.227914e+00
8.010000e-01 -1.491862e-16 -6.414204e-05 6.414204e-05 2.228000e+00
8.020000e-01 -8.760354e-17 -6.326664e-05 6.326664e-05 2.228085e+00
8.030000e-01 -3.642919e-17 -6.239326e-05 6.239326e-05 2.228171e+00
8.040000e-01 -5.898060e-17 -6.152189e-05 6.152189e-05 2.228257e+00
8.050000e-01 -1.222980e-16 -6.065252e-05 6.065252e-05 2.228343e+00
8.060000e-01 -1.231654e-16 -5.978517e-05 5.978517e-05 2.228429e+00
8.070000e-01 -1.734723e-17 -5.891982e-05 5.891982e-05 2.228515e+00
8.080000e-01 -5.724587e-17 -5.805646e-05 5.805646e-05 2.228601e+00
8.090000e-01 -7.979728e-17 -5.719511e-05 5.719511e-05 2.228687e+00
8.100000e-01 -1.127570e-16 -5.633574e-05 5.633574e-05 2.228774e+00
8.110000e-01 -8.500145e-17 -5.547836e-05 5.547836e-05 2.228860e+00
8.120000e-01 -1.847481e-16 -5.462296e-05 5.462296e-05 2.228947e+00
8.130000e-01 -1.205633e-16 -5.376954e-05 5.376954e-05 2.229034e+00
8.140000e-01 -3.035766e-17 -5.291810e-05 5.291810e-05 2.229120e+00
8.150000e-01 -9.714451e-17 -5.206862e-05 5.206862e-05 2.229207e+00
8.160000e-01 -1.023487e-16 -5.122112e-05 5.122112e-05 2.229294e+00
8.170000e-01 -1.439820e-16 -5.037558e-05 5.037558e-05 2.229381e+00
8.180000e-01 -1.361758e-16 -4.953200e-05 4.953200e-05 2.229469e+00
8.190000e-01 -1.084202e-16 -4.869038e-05 4.869038e-05 2.229556e+00
8.200000e-01 -5.551115e-17 -4.785071e-05 4.785071e-05 2.229643e+00
8.210000e-01 -7.979728e-17 -4.701299e-05 4.701299e-05 2.229731e+00
8.220000e-01 -8.933826e-17 -4.617722e-05 4.617722e-05 2.229818e+00
8.230000e-01 -1.153591e-16 -4.534338e-05 4.534338e-05 2.229906e+00
8.240000e-01 -1.639314e-16 -4.451149e-05 4.451149e-05 2.229994e+00
8.250000e-01 -1.474515e-16 -4.368152e-05 4.368152e-05 2.230082e+00
8.260000e-01 -4.163336e-17 -4.285349e-05 4.285349e-05 2.230170e+00
8.270000e-01 -3.122502e-17 -4.202739e-05 4.202739e-05 2.230258e+00
8.280000e-01 -9.540979e-17 -4.120320e-05 4.120320e-05 2.230346e+00
8.290000e-01 -1.474515e-16 -4.038094e-05 4.038094e-05 2.230434e+00
8.300000e-01 -1.639314e-16 -3.956059e-05 3.956059e-05 2.230523e+00
8.310000e-01 -1.613293e-16 -3.874216e-05 3.874216e-05 2.230611e+00
8.320000e-01 -1.075529e-16 -3.792563e-05 3.792563e-05 2.230700e+00
8.330000e-01 -1.439820e-16 -3.711100e-05 3.711100e-05 2.230789e+00
8.340000e-01 -1.032160e-16 -3.629827e-05 3.629827e-05 2.230877e+00
8.350000e-01 -3.989864e-17 -3.548745e-05 3.548745e-05 2.230966e+00
8.360000e-01 -1.032160e-16 -3.467851e-05 3.467851e-05 2.231055e+00
8.370000e-01 -9.714451e-17 -3.387146e-05 3.387146e-05 2.231144e+00
8.380000e-01 -1.344411e-16 -3.306630e-05 3.306630e-05 2.231234e+00
8.390000e-01 -9.280771e-17 -3.226302e-05 3.226302e-05 2.231323e+00
8.400000e-01 -7.632783e-17 -3.146162e-05 3.146162e-05 2.231412e+00
8.410000e-01 -1.222980e-16 -3.066209e-05 3.066209e-05 2.231502e+00
8.420000e-01 -1.249001e-16 -2.986444e-05 2.986444e-05 2.231591e+00
8.430000e-01 -1.249001e-16 -2.906865e-05 2.906865e-05 2.231681e+00
8.440000e-01 -4.163336e-17 -2.827472e-05 2.827472e-05 2.231771e+00
8.450000e-01 -1.717376e-16 -2.748266e-05 2.748266e-05 2.231861e+00
8.460000e-01 -6.678685e-17 -2.669245e-05 2.669245e-05 2.231950e+00
8.470000e-01 -9.454243e-17 -2.590409e-05 2.590409e-05 2.232041e+00
8.480000e-01 -2.168404e-17 -2.511758e-05 2.511758e-05 2.232131e+00
8.490000e-01 -2.081668e-16 -2.433291e-05 2.433291e-05 2.232221e+00
8.500000e-01 -9.194034e-17 -2.355009e-05 2.355009e-05 2.232311e+00
8.510000e-01 -9.801188e-17 -2.276911e-05 2.276911e-05 2.232402e+00
8.520000e-01 -6.852158e-17 -2.198996e-05 2.198996e-05 2.232492e+00
8.530000e-01 -1.006140e-16 -2.121264e-05 2.121264e-05 2.232583e+00
8.540000e-01 -1.804112e-16 -2.043714e-05 2.043714e-05 2.232674e+00
8.550000e-01 -7.459311e-17 -1.966347e-05 1.966347e-05 2.232764e+00
8.560000e-01 -1.726050e-16 -1.889163e-05 1.889163e-05 2.232855e+00
8.570000e-01 -1.006140e-16 -1.812159e-05 1.812159e-05 2.232946e+00
8.580000e-01 -6.418477e-17 -1.735337e-05 1.735337e-05 2.233037e+00
8.590000e-01 -1.066855e-16 -1.658696e-05 1.658696e-05 2.233129e+00
8.600000e-01 -7.025630e-17 -1.582236e-05 1.582236e-05 2.233220e+00
8.610000e-01 -1.422473e-16 -1.505955e-05 1.505955e-05 2.233311e+00
8.620000e-01 -1.075529e-16 -1.429855e-05 1.429855e-05 2.233403e+00
8.630000e-01 -1.075529e-16 -1.353934e-05 1.353934e-05 2.233494e+00
8.640000e-01 -7.979728e-17 -1.278192e-05 1.278192e-05 2.233586e+00
8.650000e-01 -1.249001e-16 -1.202629e-05 1.202629e-05 2.233678e+00
8.660000e-01 -9.107298e-17 -1.127245e-05 1.127245e-05 2.233769e+00
8.670000e-01 -1.717376e-16 -1.052038e-05 1.052038e-05 2.233861e+00
8.680000e-01 -9.714451e-17 -9.770097e-06 9.770097e-06 2.233953e+00
8.690000e-01 -1.327063e-16 -9.021584e-06 9.021584e-06 2.234046e+00
8.700000e-01 -2.498002e-16 -8.274843e-06 8.274843e-06 2.234138e+00
8.710000e-01 -1.344411e-16 -7.529869e-06 7.529869e-06 2.234230e+00
8.720000e-01 -1.535230e-16 -6.786658e-06 6.786658e-06 2.234322e+00
8.730000e-01 -7.632783e-17 -6.045208e-06 6.045208e-06 2.234415e+00
8.740000e-01 -1.092876e-16 -5.305515e-06 5.305515e-06 2.234508e+00
8.750000e-01 -1.717376e-16 -4.567576e-06 4.567576e-06 2.234600e+00
8.760000e-01 -1.396452e-16 -3.831386e-06 3.831386e-06 2.234693e+00
8.770000e-01 -1.127570e-16 -3.096944e-06 3.096944e-06 2.234786e+00
8.780000e-01 -1.231654e-16 -2.364244e-06 2.364244e-06 2.234879e+00
8.790000e-01 -1.196959e-16 -1.633285e-06 1.633285e-06 2.234972e+00
8.800000e-01 -1.014813e-16 -9.040622e-07 9.040622e-07 2.235065e+00
8.810000e-01 -1.543904e-16 -1.765728e-07 1.765728e-07 2.235158e+00
8.820000e-01 -1.587272e-16 5.491867e-07 -5.491867e-07 2.235252e+00
8.830000e-01 -1.136244e-16 1.273220e-06 -1.273220e-06 2.235345e+00
8.840000e-01 -7.719519e-17 1.995529e-06 -1.995529e-06 2.235438e+00
8.850000e-01 -1.726050e-16 2.716119e-06 -2.716119e-06 2.235532e+00
8.860000e-01 -1.942890e-16 3.434992e-06 -3.434992e-06 2.235626e+00
8.870000e-01 -1.760744e-16 4.152151e-06 -4.152151e-06 2.235720e+00
8.880000e-01 -1.960238e-16 4.867601e-06 -4.867601e-06 2.235813e+00
8.890000e-01 -9.280771e-17 5.581344e-06 -5.581344e-06 2.235907e+00
8.900000e-01 -1.613293e-16 6.293383e-06 -6.293383e-06 2.236001e+00
8.910000e-01 -2.350550e-16 7.003721e-06 -7.003721e-06 2.236095e+00
8.920000e-01 -1.353084e-16 7.712363e-06 -7.712363e-06 2.236190e+00
8.930000e-01 -8.066464e-17 8.419311e-06 -8.419311e-06 2.236284e+00
8.940000e-01 -1.960238e-16 9.124568e-06 -9.124568e-06 2.236378e+00
8.950000e-01 -1.405126e-16 9.828138e-06 -9.828138e-06 2.236473e+00
8.960000e-01 -1.899522e-16 1.053002e-05 -1.053002e-05 2.236568e+00
8.970000e-01 -1.535230e-16 1.123023e-05 -1.123023e-05 2.236662e+00
8.980000e-01 -1.422473e-16 1.192875e-05 -1.192875e-05 2.236757e+00
8.990000e-01 -1.700029e-16 1.262561e-05 -1.262561e-05 2.236852e+00
9.000000e-01 -1.170938e-16 1.332079e-05 -1.332079e-05 2.236947e+00
9.010000e-01 -1.509209e-16 1.401430e-05 -1.401430e-05 2.237042e+00
9.020000e-01 -1.266348e-16 1.470614e-05 -1.470614e-05 2.237137e+00
9.030000e-01 -1.110223e-16 1.539633e-05 -1.539633e-05 2.237232e+00
9.040000e-01 -1.353084e-16 1.608485e-05 -1.608485e-05 2.237327e+00
9.050000e-01 -1.890849e-16 1.677172e-05 -1.677172e-05 2.237423e+00
9.060000e-01 -1.743397e-16 1.745694e-05 -1.745694e-05 2.237518e+00
9.070000e-01 -1.092876e-16 1.814050e-05 -1.814050e-05 2.237614e+00
9.080000e-01 -1.595946e-16 1.882242e-05 -1.882242e-05 2.237709e+00
9.090000e-01 -1.535230e-16 1.950269e-05 -1.950269e-05 2.237805e+00
9.100000e-01 -2.029626e-16 2.018133e-05 -2.018133e-05 2.237901e+00
9.110000e-01 -1.474515e-16 2.085832e-05 -2.085832e-05 2.237997e+00
9.120000e-01 -1.153591e-16 2.153369e-05 -2.153369e-05 2.238093e+00
9.130000e-01 -1.743397e-16 2.220741e-05 -2.220741e-05 2.238189e+00
9.140000e-01 -1.092876e-16 2.287951e-05 -2.287951e-05 2.238285e+00
9.150000e-01 -1.639314e-16 2.354999e-05 -2.354999e-05 2.238381e+00
9.160000e-01 -1.344411e-16 2.421884e-05 -2.421884e-05 2.238478e+00
9.170000e-01 -6.245005e-17 2.488607e-05 -2.488607e-05 2.238574e+00
9.180000e-01 -1.595946e-16 2.555169e-05 -2.555169e-05 2.238671e+00
9.190000e-01 -1.075529e-16 2.621569e-05 -2.621569e-05 2.238767e+00
9.200000e-01 -1.283695e-16 2.687807e-05 -2.687807e-05 2.238864e+00
9.210000e-01 -1.561251e-16 2.753885e-05 -2.753885e-05 2.238961e+00
9.220000e-01 -1.231654e-16 2.819803e-05 -2.819803e-05 2.239057e+00
9.230000e-01 -2.428613e-16 2.885560e-05 -2.885560e-05 2.239154e+00
9.240000e-01 -1.257675e-16 2.951157e-05 -2.951157e-05 2.239251e+00
9.250000e-01 -1.847481e-16 3.016595e-05 -3.016595e-05 2.239349e+00
9.260000e-01 -1.422473e-16 3.081873e-05 -3.081873e-05 2.239446e+00
9.270000e-01 -1.379105e-16 3.146991e-05 -3.146991e-05 2.239543e+00
9.280000e-01 -6.591949e-17 3.211951e-05 -3.211951e-05 2.239640e+00
9.290000e-01 -7.112366e-17 3.276753e-05 -3.276753e-05 2.239738e+00
9.300000e-01 -1.752071e-16 3.341396e-05 -3.341396e-05 2.239835e+00
9.310000e-01 -2.012279e-16 3.405881e-05 -3.405881e-05 2.239933e+00
9.320000e-01 -1.639314e-16 3.470208e-05 -3.470208e-05 2.240031e+00
9.330000e-01 -1.543904e-16 3.534378e-05 -3.534378e-05 2.240128e+00
9.340000e-01 -2.237793e-16 3.598390e-05 -3.598390e-05 2.240226e+00
9.350000e-01 -1.656661e-16 3.662246e-05 -3.662246e-05 2.240324e+00
9.360000e-01 -1.778092e-16 3.725945e-05 -3.725945e-05 2.240422e+00
9.370000e-01 -1.240327e-16 3.789487e-05 -3.789487e-05 2.240520e+00
9.380000e-01 -1.275022e-16 3.852873e-05 -3.852873e-05 2.240619e+00
9.390000e-01 -1.734723e-16 3.916104e-05 -3.916104e-05 2.240717e+00
9.400000e-01 -1.960238e-16 3.979178e-05 -3.979178e-05 2.240815e+00
9.410000e-01 -2.107689e-16 4.042098e-05 -4.042098e-05 2.240914e+00
9.420000e-01 -1.266348e-16 4.104862e-05 -4.104862e-05 2.241012e+00
9.430000e-01 -9.454243e-17 4.167471e-05 -4.167471e-05 2.241111e+00
9.440000e-01 -1.595946e-16 4.229926e-05 -4.229926e-05 2.241210e+00
9.450000e-01 -1.578598e-16 4.292226e-05 -4.292226e-05 2.241308e+00
9.460000e-01 -6.938894e-17 4.354373e-05 -4.354373e-05 2.241407e+00
9.470000e-01 -1.309716e-16 4.416365e-05 -4.416365e-05 2.241506e+00
9.480000e-01 -1.578598e-16 4.478204e-05 -4.478204e-05 2.241605e+00
9.490000e-01 -1.188286e-16 4.539889e-05 -4.539889e-05 2.241704e+00
9.500000e-01 -1.561251e-16 4.601421e-05 -4.601421e-05 2.241804e+00
9.510000e-01 -1.726050e-16 4.662801e-05 -4.662801e-05 2.241903e+00
9.520000e-01 -1.283695e-16 4.724028e-05 -4.724028e-05 2.242002e+00
9.530000e-01 -1.587272e-16 4.785102e-05 -4.785102e-05 2.242102e+00
9.540000e-01 -2.194425e-16 4.846024e-05 -4.846024e-05 2.242201e+00
9.550000e-01 -1.752071e-16 4.906795e-05 -4.906795e-05 2.242301e+00
9.560000e-01 -1.847481e-16 4.967414e-05 -4.967414e-05 2.242400e+00
9.570000e-01 -5.551115e-17 5.027881e-05 -5.027881e-05 2.242500e+00
9.580000e-01 -1.630640e-16 5.088197e-05 -5.088197e-05 2.242600e+00
9.590000e-01 -1.491862e-16 5.148362e-05 -5.148362e-05 2.242700e+00
9.600000e-01 -1.786765e-16 5.208377e-05 -5.208377e-05 2.242800e+00
9.610000e-01 -1.604619e-16 5.268241e-05 -5.268241e-05 2.242900e+00
9.620000e-01 -2.194425e-16 5.327954e-05 -5.327954e-05 2.243000e+00
9.630000e-01 -2.029626e-16 5.387518e-05 -5.387518e-05 2.243100e+00
9.640000e-01 -1.925543e-16 5.446932e-05 -5.446932e-05 2.243201e+00
9.650000e-01 -3.122502e-17 5.506196e-05 -5.506196e-05 2.243301e+00
9.660000e-01 -7.546047e-17 5.565311e-05 -5.565311e-05 2.243402e+00
9.670000e-01 -1.179612e-16 5.624276e-05 -5.624276e-05 2.243502e+00
9.680000e-01 -2.272488e-16 5.683093e-05 -5.683093e-05 2.243603e+00
9.690000e-01 -1.214306e-16 5.741761e-05 -5.741761e-05 2.243703e+00
9.700000e-01 -1.153591e-16 5.800281e-05 -5.800281e-05 2.243804e+00
9.710000e-01 -1.396452e-16 5.858652e-05 -5.858652e-05 2.243905e+00
9.720000e-01 -1.561251e-16 5.916875e-05 -5.916875e-05 2.244006e+00
9.730000e-01 -2.229120e-16 5.974951e-05 -5.974951e-05 2.244107e+00
9.740000e-01 -1.552578e-16 6.032878e-05 -6.032878e-05 2.244208e+00
9.750000e-01 -2.359224e-16 6.090659e-05 -6.090659e-05 2.244309e+00
9.760000e-01 -1.717376e-16 6.148292e-05 -6.148292e-05 2.244411e+00
9.770000e-01 -1.908196e-16 6.205778e-05 -6.205778e-05 2.244512e+00
9.780000e-01 -1.413800e-16 6.263117e-05 -6.263117e-05 2.244613e+00
9.790000e-01 -1.682682e-16 6.320309e-05 -6.320309e-05 2.244715e+00
9.800000e-01 -1.457168e-16 6.377355e-05 -6.377355e-05 2.244816e+00
9.810000e-01 -1.604619e-16 6.434255e-05 -6.434255e-05 2.244918e+00
9.820000e-01 -1.856154e-16 6.491009e-05 -6.491009e-05 2.245020e+00
9.830000e-01 -9.714451e-17 6.547617e-05 -6.547617e-05 2.245122e+00
9.840000e-01 -1.595946e-16 6.604080e-05 -6.604080e-05 2.245224e+00
9.850000e-01 -2.480655e-16 6.660397e-05 -6.660397e-05 2.245325e+00
9.860000e-01 -1.682682e-16 6.716568e-05 -6.716568e-05 2.245428e+00
9.870000e-01 -1.344411e-16 6.772595e-05 -6.772595e-05 2.245530e+00
9.880000e-01 -1.517883e-16 6.828477e-05 -6.828477e-05 2.245632e+00
9.890000e-01 -1.674008e-16 6.884214e-05 -6.884214e-05 2.245734e+00
9.900000e-01 -2.012279e-16 6.939806e-05 -6.939806e-05 2.245836e+00
9.910000e-01 -1.422473e-16 6.995255e-05 -6.995255e-05 2.245939e+00
9.920000e-01 -9.540979e-17 7.050559e-05 -7.050559e-05 2.246041e+00
9.930000e-01 -1.144917e-16 7.105719e-05 -7.105719e-05 2.246144e+00
9.940000e-01 -9.194034e-17 7.160735e-05 -7.160735e-05 2.246246e+00
9.950000e-01 -1.387779e-16 7.215608e-05 -7.215608e-05 2.246349e+00
9.960000e-01 -2.177078e-16 7.270337e-05 -7.270337e-05 2.246452e+00
9.970000e-01 -1.595946e-16 7.324923e-05 -7.324923e-05 2.246555e+00
9.980000e-01 -2.012279e-16 7.379366e-05 -7.379366e-05 2.246658e+00
9.990000e-01 -2.151057e-16 7.433666e-05 -7.433666e-05 2.246761e+00
1.000000e+00 -1.552578e-16 7.487823e-05 -7.487823e-05 2.246864e+00